$molecule
0 1
  He    0.8159165   -1.3334664   -2.6277191
 He    2.5039432   -1.3334664   -4.2752874
$end

$rem
   BASIS  =  aug-pc-4
   GEN_SCFMAN  =  1
   GEOM_OPT_MAX_CYCLES  =  200
   GUI  =  2
   INTERNAL_STABILITY_DAVIDSON_ITER  =  200
   INTERNAL_STABILITY_ITER  =  15
   JOBTYPE  =  sp
   MAX_SCF_CYCLES  =  200
   MEM_STATIC  =  1500
   MEM_TOTAL  =  128000
   METHOD  =  hf
   SCF_ALGORITHM  =  GDM
   SCF_CONVERGENCE  =  8
   SYMMETRY  =  false
   SYM_IGNORE  =  true
   THRESH  =  8
$end

