$molecule
0 2
C1	0.0000	0.0000	0.0000
H2	1.0800	0.0000	0.0000
O3	-0.5899	1.0427	0.0000
$end

$rem
jobtype sp
method scan0
xc_grid 000099000590
basis aug-cc-pcVTZ
max_scf_cycles 200
thresh 14
scf_convergence 8
scf_algorithm gdm
symmetry false
sym_ignore true
unrestricted true
gen_scfman true
internal_stability_iter 15
internal_stability_davidson_iter 200
mem_total 64000
mem_static 1500
n_frozen_core 0
$end


@@@@@@
$molecule
read
$end

$rem

jobtype sp
method scan0
xc_grid 000099000590
basis aug-cc-pcVTZ
max_scf_cycles 200
thresh 14
scf_convergence 8
mem_total 64000
mem_static 1500
symmetry false
sym_ignore true
scf_guess read
unrestricted true
scf_algorithm gdm
$end

$multipole_field
XX 0.0001
$end

@@@@@@
$molecule
read
$end

$rem

jobtype sp
method scan0
xc_grid 000099000590
basis aug-cc-pcVTZ
max_scf_cycles 200
thresh 14
scf_convergence 8
mem_total 64000
mem_static 1500
symmetry false
sym_ignore true
scf_guess read
unrestricted true
scf_algorithm gdm
$end

$multipole_field
XX -0.0001
$end



@@@@@@
$molecule
read
$end

$rem

jobtype sp
method scan0
xc_grid 000099000590
basis aug-cc-pcVTZ
max_scf_cycles 200
thresh 14
scf_convergence 8
CC_E_CONV 8
CC_T_CONV 6
mem_total 64000
mem_static 1500
symmetry false
sym_ignore true
scf_guess read
unrestricted true
scf_algorithm gdm
$end

$multipole_field
YY 0.0001
$end


@@@@@@
$molecule
read
$end

$rem

jobtype sp
method scan0
xc_grid 000099000590
basis aug-cc-pcVTZ
max_scf_cycles 200
thresh 14
scf_convergence 8
mem_total 64000
mem_static 1500
symmetry false
sym_ignore true
scf_guess read
unrestricted true
scf_algorithm gdm
$end

$multipole_field
YY -0.0001
$end
@@@@@@
$molecule
read
$end

$rem

jobtype sp
method scan0
xc_grid 000099000590
basis aug-cc-pcVTZ
max_scf_cycles 200
thresh 14
scf_convergence 8
mem_total 64000
mem_static 1500
symmetry false
sym_ignore true
scf_guess read
unrestricted true
scf_algorithm gdm
$end

$multipole_field
ZZ 0.0001
$end

@@@@@@
$molecule
read
$end

$rem

jobtype sp
method scan0
xc_grid 000099000590
basis aug-cc-pcVTZ
max_scf_cycles 200
thresh 14
scf_convergence 8
mem_total 64000
mem_static 1500
symmetry false
sym_ignore true
scf_guess read
unrestricted true
scf_algorithm gdm
$end

$multipole_field
ZZ -0.0001
$end
