$molecule
0 1
  He    1.2271712   -1.3184656   -3.1333694
 He    2.4916507   -1.1756577   -4.2528087
 He   -0.0379836   -1.4617180   -2.0132112
 He   -1.3038939   -1.6052358   -0.8923367
 He    3.7567734   -1.0330560   -5.3730075
 He    5.0226569   -0.8904047   -6.4942974
$end

$rem
   BASIS  =  aug-pc-4
   GEN_SCFMAN  =  1
   GEOM_OPT_MAX_CYCLES  =  200
   GUI  =  2
   INTERNAL_STABILITY_DAVIDSON_ITER  =  200
   INTERNAL_STABILITY_ITER  =  15
   JOBTYPE  =  sp
   MAX_SCF_CYCLES  =  200
   MEM_STATIC  =  1500
   MEM_TOTAL  =  128000
   METHOD  =  hf
   SCF_ALGORITHM  =  GDM
   SCF_CONVERGENCE  =  8
   SYMMETRY  =  false
   SYM_IGNORE  =  true
   THRESH  =  8
$end

