$molecule
0 1
Li1     0.0000  0.0000  0.0000
Cl2     0.0000  0.0000  2.0207
$end

$rem
jobtype sp
method CCSD(T)
xc_grid 000099000590
basis gen
use_libpt true
max_scf_cycles 200
thresh 14
scf_convergence 8
scf_algorithm gdm
symmetry false
sym_ignore true
unrestricted true
gen_scfman true
internal_stability_iter 15
internal_stability_davidson_iter 200
mem_total 128000
cc_memory 96000
cc_backend xm
mem_static 1500
n_frozen_core 0
$end

$basis
****
Cl    0
aug-cc-pCV5Z
$basis
****
Li     0
S   14   1.00
  29493.0000000              1.8000000e-05
   4417.1010000              1.4100000e-04
   1005.2230000              7.3900000e-04
    284.7009000              3.1070000e-03
     92.8654300              1.1135000e-02
     33.5117900              3.4670000e-02
     13.0418000              9.2171000e-02
      5.3575360              1.9957600e-01
      2.2793380              3.2883600e-01
      0.9939900              3.4597500e-01
      0.4334710              1.4276100e-01
      0.0955660              5.3190000e-03
      0.0446570             -2.1010000e-03
      0.0206330              8.1500000e-04
S   14   1.00
  29493.0000000             -3.0000000e-06
   4417.1010000             -2.2000000e-05
   1005.2230000             -1.1500000e-04
    284.7009000             -4.8700000e-04
     92.8654300             -1.7460000e-03
     33.5117900             -5.5200000e-03
     13.0418000             -1.4928000e-02
      5.3575360             -3.4206000e-02
      2.2793380             -6.2155000e-02
      0.9939900             -9.5902000e-02
      0.4334710             -1.0397200e-01
      0.0955660              3.0715100e-01
      0.0446570              5.7902800e-01
      0.0206330              2.2323100e-01
S   1   1.00
      0.4334710              1.0000000e+00
S   1   1.00
      0.0955660              1.0000000e+00
S   1   1.00
      0.0446570              1.0000000e+00
S   1   1.00
      0.0206330              1.0000000e+00
P   8   1.00
     19.6635000              5.4000000e-04
      4.6231100              3.8650000e-03
      1.4137800              1.5171000e-02
      0.4737210              4.9204000e-02
      0.1761510              1.5466100e-01
      0.0726750              3.6009500e-01
      0.0321410              4.4185200e-01
      0.0145560              1.5600000e-01
P   1   1.00
      0.1761510              1.0000000e+00
P   1   1.00
      0.0726750              1.0000000e+00
P   1   1.00
      0.0321410              1.0000000e+00
P   1   1.00
      0.0145560              1.0000000e+00
D   1   1.00
      0.5310000              1.0000000e+00
D   1   1.00
      0.2481000              1.0000000e+00
D   1   1.00
      0.1159000              1.0000000e+00
D   1   1.00
      0.0542000              1.0000000e+00
F   1   1.00
      0.2920000              1.0000000e+00
F   1   1.00
      0.1641000              1.0000000e+00
F   1   1.00
      0.0922000              1.0000000e+00
G   1   1.00
      0.2971000              1.0000000e+00
G   1   1.00
      0.1500000              1.0000000e+00
H   1   1.00
      0.2949000              1.0000000e+00
S   1   1.00
     27.8558000              1.0000000
S   1   1.00
     12.5082000              1.0000000
S   1   1.00
      5.6166000              1.0000000
S   1   1.00
      2.5221000              1.0000000
P   1   1.00
     29.2095000              1.0000000
P   1   1.00
     11.1763000              1.0000000
P   1   1.00
      4.2763000              1.0000000
P   1   1.00
      1.6362000              1.0000000
D   1   1.00
     19.8455000              1.0000000
D   1   1.00
      7.1492000              1.0000000
D   1   1.00
      2.5754000              1.0000000
F   1   1.00
     13.2502000              1.0000000
F   1   1.00
      4.1991000              1.0000000
G   1   1.00
      8.4093000              1.0000000
S   1   1.00
      0.0061000              1.0000000
P   1   1.00
      0.0065000              1.0000000
D   1   1.00
      0.0235000              1.0000000
F   1   1.00
      0.0448000              1.0000000
G   1   1.00
      0.0724000              1.0000000
H   1   1.00
      0.1274000              1.0000000
****
$end


@@@@@@
$molecule
read
$end

$rem

jobtype sp
method CCSD(T)
xc_grid 000099000590
basis gen
use_libpt true
max_scf_cycles 200
thresh 14
scf_convergence 8
mem_total 128000
cc_memory 96000
cc_backend xm
mem_static 1500
symmetry false
sym_ignore true
scf_guess read
unrestricted true
scf_algorithm gdm
n_frozen_core 0
$end

$multipole_field
XX 0.0001
$end
$basis
****
Cl    0
aug-cc-pCV5Z
$basis
****
Li     0
S   14   1.00
  29493.0000000              1.8000000e-05
   4417.1010000              1.4100000e-04
   1005.2230000              7.3900000e-04
    284.7009000              3.1070000e-03
     92.8654300              1.1135000e-02
     33.5117900              3.4670000e-02
     13.0418000              9.2171000e-02
      5.3575360              1.9957600e-01
      2.2793380              3.2883600e-01
      0.9939900              3.4597500e-01
      0.4334710              1.4276100e-01
      0.0955660              5.3190000e-03
      0.0446570             -2.1010000e-03
      0.0206330              8.1500000e-04
S   14   1.00
  29493.0000000             -3.0000000e-06
   4417.1010000             -2.2000000e-05
   1005.2230000             -1.1500000e-04
    284.7009000             -4.8700000e-04
     92.8654300             -1.7460000e-03
     33.5117900             -5.5200000e-03
     13.0418000             -1.4928000e-02
      5.3575360             -3.4206000e-02
      2.2793380             -6.2155000e-02
      0.9939900             -9.5902000e-02
      0.4334710             -1.0397200e-01
      0.0955660              3.0715100e-01
      0.0446570              5.7902800e-01
      0.0206330              2.2323100e-01
S   1   1.00
      0.4334710              1.0000000e+00
S   1   1.00
      0.0955660              1.0000000e+00
S   1   1.00
      0.0446570              1.0000000e+00
S   1   1.00
      0.0206330              1.0000000e+00
P   8   1.00
     19.6635000              5.4000000e-04
      4.6231100              3.8650000e-03
      1.4137800              1.5171000e-02
      0.4737210              4.9204000e-02
      0.1761510              1.5466100e-01
      0.0726750              3.6009500e-01
      0.0321410              4.4185200e-01
      0.0145560              1.5600000e-01
P   1   1.00
      0.1761510              1.0000000e+00
P   1   1.00
      0.0726750              1.0000000e+00
P   1   1.00
      0.0321410              1.0000000e+00
P   1   1.00
      0.0145560              1.0000000e+00
D   1   1.00
      0.5310000              1.0000000e+00
D   1   1.00
      0.2481000              1.0000000e+00
D   1   1.00
      0.1159000              1.0000000e+00
D   1   1.00
      0.0542000              1.0000000e+00
F   1   1.00
      0.2920000              1.0000000e+00
F   1   1.00
      0.1641000              1.0000000e+00
F   1   1.00
      0.0922000              1.0000000e+00
G   1   1.00
      0.2971000              1.0000000e+00
G   1   1.00
      0.1500000              1.0000000e+00
H   1   1.00
      0.2949000              1.0000000e+00
S   1   1.00
     27.8558000              1.0000000
S   1   1.00
     12.5082000              1.0000000
S   1   1.00
      5.6166000              1.0000000
S   1   1.00
      2.5221000              1.0000000
P   1   1.00
     29.2095000              1.0000000
P   1   1.00
     11.1763000              1.0000000
P   1   1.00
      4.2763000              1.0000000
P   1   1.00
      1.6362000              1.0000000
D   1   1.00
     19.8455000              1.0000000
D   1   1.00
      7.1492000              1.0000000
D   1   1.00
      2.5754000              1.0000000
F   1   1.00
     13.2502000              1.0000000
F   1   1.00
      4.1991000              1.0000000
G   1   1.00
      8.4093000              1.0000000
S   1   1.00
      0.0061000              1.0000000
P   1   1.00
      0.0065000              1.0000000
D   1   1.00
      0.0235000              1.0000000
F   1   1.00
      0.0448000              1.0000000
G   1   1.00
      0.0724000              1.0000000
H   1   1.00
      0.1274000              1.0000000
****
$end

@@@@@@
$molecule
read
$end

$rem

jobtype sp
method CCSD(T)
xc_grid 000099000590
basis gen
use_libpt true
max_scf_cycles 200
thresh 14
scf_convergence 8
mem_total 128000
cc_memory 96000
cc_backend xm
mem_static 1500
symmetry false
sym_ignore true
scf_guess read
unrestricted true
scf_algorithm gdm
n_frozen_core 0
$end

$multipole_field
XX -0.0001
$end
$basis
****
Cl    0
aug-cc-pCV5Z
$basis
****
Li     0
S   14   1.00
  29493.0000000              1.8000000e-05
   4417.1010000              1.4100000e-04
   1005.2230000              7.3900000e-04
    284.7009000              3.1070000e-03
     92.8654300              1.1135000e-02
     33.5117900              3.4670000e-02
     13.0418000              9.2171000e-02
      5.3575360              1.9957600e-01
      2.2793380              3.2883600e-01
      0.9939900              3.4597500e-01
      0.4334710              1.4276100e-01
      0.0955660              5.3190000e-03
      0.0446570             -2.1010000e-03
      0.0206330              8.1500000e-04
S   14   1.00
  29493.0000000             -3.0000000e-06
   4417.1010000             -2.2000000e-05
   1005.2230000             -1.1500000e-04
    284.7009000             -4.8700000e-04
     92.8654300             -1.7460000e-03
     33.5117900             -5.5200000e-03
     13.0418000             -1.4928000e-02
      5.3575360             -3.4206000e-02
      2.2793380             -6.2155000e-02
      0.9939900             -9.5902000e-02
      0.4334710             -1.0397200e-01
      0.0955660              3.0715100e-01
      0.0446570              5.7902800e-01
      0.0206330              2.2323100e-01
S   1   1.00
      0.4334710              1.0000000e+00
S   1   1.00
      0.0955660              1.0000000e+00
S   1   1.00
      0.0446570              1.0000000e+00
S   1   1.00
      0.0206330              1.0000000e+00
P   8   1.00
     19.6635000              5.4000000e-04
      4.6231100              3.8650000e-03
      1.4137800              1.5171000e-02
      0.4737210              4.9204000e-02
      0.1761510              1.5466100e-01
      0.0726750              3.6009500e-01
      0.0321410              4.4185200e-01
      0.0145560              1.5600000e-01
P   1   1.00
      0.1761510              1.0000000e+00
P   1   1.00
      0.0726750              1.0000000e+00
P   1   1.00
      0.0321410              1.0000000e+00
P   1   1.00
      0.0145560              1.0000000e+00
D   1   1.00
      0.5310000              1.0000000e+00
D   1   1.00
      0.2481000              1.0000000e+00
D   1   1.00
      0.1159000              1.0000000e+00
D   1   1.00
      0.0542000              1.0000000e+00
F   1   1.00
      0.2920000              1.0000000e+00
F   1   1.00
      0.1641000              1.0000000e+00
F   1   1.00
      0.0922000              1.0000000e+00
G   1   1.00
      0.2971000              1.0000000e+00
G   1   1.00
      0.1500000              1.0000000e+00
H   1   1.00
      0.2949000              1.0000000e+00
S   1   1.00
     27.8558000              1.0000000
S   1   1.00
     12.5082000              1.0000000
S   1   1.00
      5.6166000              1.0000000
S   1   1.00
      2.5221000              1.0000000
P   1   1.00
     29.2095000              1.0000000
P   1   1.00
     11.1763000              1.0000000
P   1   1.00
      4.2763000              1.0000000
P   1   1.00
      1.6362000              1.0000000
D   1   1.00
     19.8455000              1.0000000
D   1   1.00
      7.1492000              1.0000000
D   1   1.00
      2.5754000              1.0000000
F   1   1.00
     13.2502000              1.0000000
F   1   1.00
      4.1991000              1.0000000
G   1   1.00
      8.4093000              1.0000000
S   1   1.00
      0.0061000              1.0000000
P   1   1.00
      0.0065000              1.0000000
D   1   1.00
      0.0235000              1.0000000
F   1   1.00
      0.0448000              1.0000000
G   1   1.00
      0.0724000              1.0000000
H   1   1.00
      0.1274000              1.0000000
****
$end

@@@@@@
$molecule
read
$end

$rem

jobtype sp
method CCSD(T)
xc_grid 000099000590
basis gen
use_libpt true
max_scf_cycles 200
thresh 14
scf_convergence 8
mem_total 128000
cc_memory 96000
cc_backend xm
mem_static 1500
symmetry false
sym_ignore true
scf_guess read
unrestricted true
scf_algorithm gdm
n_frozen_core 0
$end

$multipole_field
YY 0.0001
$end

$basis
****
Cl    0
aug-cc-pCV5Z
$basis
****
Li     0
S   14   1.00
  29493.0000000              1.8000000e-05
   4417.1010000              1.4100000e-04
   1005.2230000              7.3900000e-04
    284.7009000              3.1070000e-03
     92.8654300              1.1135000e-02
     33.5117900              3.4670000e-02
     13.0418000              9.2171000e-02
      5.3575360              1.9957600e-01
      2.2793380              3.2883600e-01
      0.9939900              3.4597500e-01
      0.4334710              1.4276100e-01
      0.0955660              5.3190000e-03
      0.0446570             -2.1010000e-03
      0.0206330              8.1500000e-04
S   14   1.00
  29493.0000000             -3.0000000e-06
   4417.1010000             -2.2000000e-05
   1005.2230000             -1.1500000e-04
    284.7009000             -4.8700000e-04
     92.8654300             -1.7460000e-03
     33.5117900             -5.5200000e-03
     13.0418000             -1.4928000e-02
      5.3575360             -3.4206000e-02
      2.2793380             -6.2155000e-02
      0.9939900             -9.5902000e-02
      0.4334710             -1.0397200e-01
      0.0955660              3.0715100e-01
      0.0446570              5.7902800e-01
      0.0206330              2.2323100e-01
S   1   1.00
      0.4334710              1.0000000e+00
S   1   1.00
      0.0955660              1.0000000e+00
S   1   1.00
      0.0446570              1.0000000e+00
S   1   1.00
      0.0206330              1.0000000e+00
P   8   1.00
     19.6635000              5.4000000e-04
      4.6231100              3.8650000e-03
      1.4137800              1.5171000e-02
      0.4737210              4.9204000e-02
      0.1761510              1.5466100e-01
      0.0726750              3.6009500e-01
      0.0321410              4.4185200e-01
      0.0145560              1.5600000e-01
P   1   1.00
      0.1761510              1.0000000e+00
P   1   1.00
      0.0726750              1.0000000e+00
P   1   1.00
      0.0321410              1.0000000e+00
P   1   1.00
      0.0145560              1.0000000e+00
D   1   1.00
      0.5310000              1.0000000e+00
D   1   1.00
      0.2481000              1.0000000e+00
D   1   1.00
      0.1159000              1.0000000e+00
D   1   1.00
      0.0542000              1.0000000e+00
F   1   1.00
      0.2920000              1.0000000e+00
F   1   1.00
      0.1641000              1.0000000e+00
F   1   1.00
      0.0922000              1.0000000e+00
G   1   1.00
      0.2971000              1.0000000e+00
G   1   1.00
      0.1500000              1.0000000e+00
H   1   1.00
      0.2949000              1.0000000e+00
S   1   1.00
     27.8558000              1.0000000
S   1   1.00
     12.5082000              1.0000000
S   1   1.00
      5.6166000              1.0000000
S   1   1.00
      2.5221000              1.0000000
P   1   1.00
     29.2095000              1.0000000
P   1   1.00
     11.1763000              1.0000000
P   1   1.00
      4.2763000              1.0000000
P   1   1.00
      1.6362000              1.0000000
D   1   1.00
     19.8455000              1.0000000
D   1   1.00
      7.1492000              1.0000000
D   1   1.00
      2.5754000              1.0000000
F   1   1.00
     13.2502000              1.0000000
F   1   1.00
      4.1991000              1.0000000
G   1   1.00
      8.4093000              1.0000000
S   1   1.00
      0.0061000              1.0000000
P   1   1.00
      0.0065000              1.0000000
D   1   1.00
      0.0235000              1.0000000
F   1   1.00
      0.0448000              1.0000000
G   1   1.00
      0.0724000              1.0000000
H   1   1.00
      0.1274000              1.0000000
****
$end
@@@@@@
$molecule
read
$end

$rem

jobtype sp
method CCSD(T)
xc_grid 000099000590
basis gen
use_libpt true
max_scf_cycles 200
thresh 14
scf_convergence 8
mem_total 128000
cc_memory 96000
cc_backend xm
mem_static 1500
symmetry false
sym_ignore true
scf_guess read
unrestricted true
scf_algorithm gdm
n_frozen_core 0
$end

$multipole_field
YY -0.0001
$end

$basis
****
Cl    0
aug-cc-pCV5Z
$basis
****
Li     0
S   14   1.00
  29493.0000000              1.8000000e-05
   4417.1010000              1.4100000e-04
   1005.2230000              7.3900000e-04
    284.7009000              3.1070000e-03
     92.8654300              1.1135000e-02
     33.5117900              3.4670000e-02
     13.0418000              9.2171000e-02
      5.3575360              1.9957600e-01
      2.2793380              3.2883600e-01
      0.9939900              3.4597500e-01
      0.4334710              1.4276100e-01
      0.0955660              5.3190000e-03
      0.0446570             -2.1010000e-03
      0.0206330              8.1500000e-04
S   14   1.00
  29493.0000000             -3.0000000e-06
   4417.1010000             -2.2000000e-05
   1005.2230000             -1.1500000e-04
    284.7009000             -4.8700000e-04
     92.8654300             -1.7460000e-03
     33.5117900             -5.5200000e-03
     13.0418000             -1.4928000e-02
      5.3575360             -3.4206000e-02
      2.2793380             -6.2155000e-02
      0.9939900             -9.5902000e-02
      0.4334710             -1.0397200e-01
      0.0955660              3.0715100e-01
      0.0446570              5.7902800e-01
      0.0206330              2.2323100e-01
S   1   1.00
      0.4334710              1.0000000e+00
S   1   1.00
      0.0955660              1.0000000e+00
S   1   1.00
      0.0446570              1.0000000e+00
S   1   1.00
      0.0206330              1.0000000e+00
P   8   1.00
     19.6635000              5.4000000e-04
      4.6231100              3.8650000e-03
      1.4137800              1.5171000e-02
      0.4737210              4.9204000e-02
      0.1761510              1.5466100e-01
      0.0726750              3.6009500e-01
      0.0321410              4.4185200e-01
      0.0145560              1.5600000e-01
P   1   1.00
      0.1761510              1.0000000e+00
P   1   1.00
      0.0726750              1.0000000e+00
P   1   1.00
      0.0321410              1.0000000e+00
P   1   1.00
      0.0145560              1.0000000e+00
D   1   1.00
      0.5310000              1.0000000e+00
D   1   1.00
      0.2481000              1.0000000e+00
D   1   1.00
      0.1159000              1.0000000e+00
D   1   1.00
      0.0542000              1.0000000e+00
F   1   1.00
      0.2920000              1.0000000e+00
F   1   1.00
      0.1641000              1.0000000e+00
F   1   1.00
      0.0922000              1.0000000e+00
G   1   1.00
      0.2971000              1.0000000e+00
G   1   1.00
      0.1500000              1.0000000e+00
H   1   1.00
      0.2949000              1.0000000e+00
S   1   1.00
     27.8558000              1.0000000
S   1   1.00
     12.5082000              1.0000000
S   1   1.00
      5.6166000              1.0000000
S   1   1.00
      2.5221000              1.0000000
P   1   1.00
     29.2095000              1.0000000
P   1   1.00
     11.1763000              1.0000000
P   1   1.00
      4.2763000              1.0000000
P   1   1.00
      1.6362000              1.0000000
D   1   1.00
     19.8455000              1.0000000
D   1   1.00
      7.1492000              1.0000000
D   1   1.00
      2.5754000              1.0000000
F   1   1.00
     13.2502000              1.0000000
F   1   1.00
      4.1991000              1.0000000
G   1   1.00
      8.4093000              1.0000000
S   1   1.00
      0.0061000              1.0000000
P   1   1.00
      0.0065000              1.0000000
D   1   1.00
      0.0235000              1.0000000
F   1   1.00
      0.0448000              1.0000000
G   1   1.00
      0.0724000              1.0000000
H   1   1.00
      0.1274000              1.0000000
****
$end

@@@@@@
$molecule
read
$end

$rem

jobtype sp
method CCSD(T)
xc_grid 000099000590
basis gen
use_libpt true
max_scf_cycles 200
thresh 14
scf_convergence 8
mem_total 128000
cc_memory 96000
cc_backend xm
mem_static 1500
symmetry false
sym_ignore true
scf_guess read
unrestricted true
scf_algorithm gdm
n_frozen_core 0
$end

$multipole_field
ZZ 0.0001
$end

$basis
****
Cl    0
aug-cc-pCV5Z
$basis
****
Li     0
S   14   1.00
  29493.0000000              1.8000000e-05
   4417.1010000              1.4100000e-04
   1005.2230000              7.3900000e-04
    284.7009000              3.1070000e-03
     92.8654300              1.1135000e-02
     33.5117900              3.4670000e-02
     13.0418000              9.2171000e-02
      5.3575360              1.9957600e-01
      2.2793380              3.2883600e-01
      0.9939900              3.4597500e-01
      0.4334710              1.4276100e-01
      0.0955660              5.3190000e-03
      0.0446570             -2.1010000e-03
      0.0206330              8.1500000e-04
S   14   1.00
  29493.0000000             -3.0000000e-06
   4417.1010000             -2.2000000e-05
   1005.2230000             -1.1500000e-04
    284.7009000             -4.8700000e-04
     92.8654300             -1.7460000e-03
     33.5117900             -5.5200000e-03
     13.0418000             -1.4928000e-02
      5.3575360             -3.4206000e-02
      2.2793380             -6.2155000e-02
      0.9939900             -9.5902000e-02
      0.4334710             -1.0397200e-01
      0.0955660              3.0715100e-01
      0.0446570              5.7902800e-01
      0.0206330              2.2323100e-01
S   1   1.00
      0.4334710              1.0000000e+00
S   1   1.00
      0.0955660              1.0000000e+00
S   1   1.00
      0.0446570              1.0000000e+00
S   1   1.00
      0.0206330              1.0000000e+00
P   8   1.00
     19.6635000              5.4000000e-04
      4.6231100              3.8650000e-03
      1.4137800              1.5171000e-02
      0.4737210              4.9204000e-02
      0.1761510              1.5466100e-01
      0.0726750              3.6009500e-01
      0.0321410              4.4185200e-01
      0.0145560              1.5600000e-01
P   1   1.00
      0.1761510              1.0000000e+00
P   1   1.00
      0.0726750              1.0000000e+00
P   1   1.00
      0.0321410              1.0000000e+00
P   1   1.00
      0.0145560              1.0000000e+00
D   1   1.00
      0.5310000              1.0000000e+00
D   1   1.00
      0.2481000              1.0000000e+00
D   1   1.00
      0.1159000              1.0000000e+00
D   1   1.00
      0.0542000              1.0000000e+00
F   1   1.00
      0.2920000              1.0000000e+00
F   1   1.00
      0.1641000              1.0000000e+00
F   1   1.00
      0.0922000              1.0000000e+00
G   1   1.00
      0.2971000              1.0000000e+00
G   1   1.00
      0.1500000              1.0000000e+00
H   1   1.00
      0.2949000              1.0000000e+00
S   1   1.00
     27.8558000              1.0000000
S   1   1.00
     12.5082000              1.0000000
S   1   1.00
      5.6166000              1.0000000
S   1   1.00
      2.5221000              1.0000000
P   1   1.00
     29.2095000              1.0000000
P   1   1.00
     11.1763000              1.0000000
P   1   1.00
      4.2763000              1.0000000
P   1   1.00
      1.6362000              1.0000000
D   1   1.00
     19.8455000              1.0000000
D   1   1.00
      7.1492000              1.0000000
D   1   1.00
      2.5754000              1.0000000
F   1   1.00
     13.2502000              1.0000000
F   1   1.00
      4.1991000              1.0000000
G   1   1.00
      8.4093000              1.0000000
S   1   1.00
      0.0061000              1.0000000
P   1   1.00
      0.0065000              1.0000000
D   1   1.00
      0.0235000              1.0000000
F   1   1.00
      0.0448000              1.0000000
G   1   1.00
      0.0724000              1.0000000
H   1   1.00
      0.1274000              1.0000000
****
$end
@@@@@@
$molecule
read
$end

$rem

jobtype sp
method CCSD(T)
xc_grid 000099000590
basis gen
use_libpt true
max_scf_cycles 200
thresh 14
scf_convergence 8
mem_total 128000
cc_memory 96000
cc_backend xm
mem_static 1500
symmetry false
sym_ignore true
scf_guess read
unrestricted true
scf_algorithm gdm
n_frozen_core 0
$end

$multipole_field
ZZ 0.0001
$end

$basis
****
Cl    0
aug-cc-pCV5Z
$basis
****
Li     0
S   14   1.00
  29493.0000000              1.8000000e-05
   4417.1010000              1.4100000e-04
   1005.2230000              7.3900000e-04
    284.7009000              3.1070000e-03
     92.8654300              1.1135000e-02
     33.5117900              3.4670000e-02
     13.0418000              9.2171000e-02
      5.3575360              1.9957600e-01
      2.2793380              3.2883600e-01
      0.9939900              3.4597500e-01
      0.4334710              1.4276100e-01
      0.0955660              5.3190000e-03
      0.0446570             -2.1010000e-03
      0.0206330              8.1500000e-04
S   14   1.00
  29493.0000000             -3.0000000e-06
   4417.1010000             -2.2000000e-05
   1005.2230000             -1.1500000e-04
    284.7009000             -4.8700000e-04
     92.8654300             -1.7460000e-03
     33.5117900             -5.5200000e-03
     13.0418000             -1.4928000e-02
      5.3575360             -3.4206000e-02
      2.2793380             -6.2155000e-02
      0.9939900             -9.5902000e-02
      0.4334710             -1.0397200e-01
      0.0955660              3.0715100e-01
      0.0446570              5.7902800e-01
      0.0206330              2.2323100e-01
S   1   1.00
      0.4334710              1.0000000e+00
S   1   1.00
      0.0955660              1.0000000e+00
S   1   1.00
      0.0446570              1.0000000e+00
S   1   1.00
      0.0206330              1.0000000e+00
P   8   1.00
     19.6635000              5.4000000e-04
      4.6231100              3.8650000e-03
      1.4137800              1.5171000e-02
      0.4737210              4.9204000e-02
      0.1761510              1.5466100e-01
      0.0726750              3.6009500e-01
      0.0321410              4.4185200e-01
      0.0145560              1.5600000e-01
P   1   1.00
      0.1761510              1.0000000e+00
P   1   1.00
      0.0726750              1.0000000e+00
P   1   1.00
      0.0321410              1.0000000e+00
P   1   1.00
      0.0145560              1.0000000e+00
D   1   1.00
      0.5310000              1.0000000e+00
D   1   1.00
      0.2481000              1.0000000e+00
D   1   1.00
      0.1159000              1.0000000e+00
D   1   1.00
      0.0542000              1.0000000e+00
F   1   1.00
      0.2920000              1.0000000e+00
F   1   1.00
      0.1641000              1.0000000e+00
F   1   1.00
      0.0922000              1.0000000e+00
G   1   1.00
      0.2971000              1.0000000e+00
G   1   1.00
      0.1500000              1.0000000e+00
H   1   1.00
      0.2949000              1.0000000e+00
S   1   1.00
     27.8558000              1.0000000
S   1   1.00
     12.5082000              1.0000000
S   1   1.00
      5.6166000              1.0000000
S   1   1.00
      2.5221000              1.0000000
P   1   1.00
     29.2095000              1.0000000
P   1   1.00
     11.1763000              1.0000000
P   1   1.00
      4.2763000              1.0000000
P   1   1.00
      1.6362000              1.0000000
D   1   1.00
     19.8455000              1.0000000
D   1   1.00
      7.1492000              1.0000000
D   1   1.00
      2.5754000              1.0000000
F   1   1.00
     13.2502000              1.0000000
F   1   1.00
      4.1991000              1.0000000
G   1   1.00
      8.4093000              1.0000000
S   1   1.00
      0.0061000              1.0000000
P   1   1.00
      0.0065000              1.0000000
D   1   1.00
      0.0235000              1.0000000
F   1   1.00
      0.0448000              1.0000000
G   1   1.00
      0.0724000              1.0000000
H   1   1.00
      0.1274000              1.0000000
****
$end
