$molecule
0 1
Mg
$end

$rem
jobtype sp
method CCSD(T)
xc_grid 000099000590
use_libpt true
basis gen
max_scf_cycles 200
thresh 14
scf_convergence 8
scf_algorithm gdm
symmetry false
sym_ignore true
unrestricted true
gen_scfman true
internal_stability_iter 15
internal_stability_davidson_iter 200
mem_total 128000
cc_memory 96000
cc_backend xm
mem_static 1500
n_frozen_core 0
$end

$basis
****
H
aug-cc-pCV5Z
****
Mg     0
S 20 1.00
   2.968000E+06     1.971770E-06
   4.443000E+05     1.533620E-05
   1.011000E+05     8.068520E-05
   2.864000E+04     3.407710E-04
   9.343000E+03     1.241940E-03
   3.373000E+03     4.041240E-03
   1.316000E+03     1.197970E-02
   5.458000E+02     3.242530E-02
   2.381000E+02     7.893320E-02
   1.082000E+02     1.665750E-01
   5.080000E+01     2.828710E-01
   2.448000E+01     3.318900E-01
   1.193000E+01     2.032870E-01
   5.543000E+00     3.828970E-02
   2.675000E+00     3.089160E-04
   1.263000E+00     1.389070E-03
   5.883000E-01    -1.361590E-04
   1.496000E-01     8.553220E-05
   6.700000E-02    -5.691020E-05
   2.952000E-02     1.772590E-05
S 20 1.00
   2.968000E+06    -4.981600E-07
   4.443000E+05    -3.875630E-06
   1.011000E+05    -2.038540E-05
   2.864000E+04    -8.616590E-05
   9.343000E+03    -3.141760E-04
   3.373000E+03    -1.025770E-03
   1.316000E+03    -3.058160E-03
   5.458000E+02    -8.410630E-03
   2.381000E+02    -2.112020E-02
   1.082000E+02    -4.768820E-02
   5.080000E+01    -9.241190E-02
   2.448000E+01    -1.425480E-01
   1.193000E+01    -1.261680E-01
   5.543000E+00     7.152820E-02
   2.675000E+00     3.830390E-01
   1.263000E+00     4.901330E-01
   5.883000E-01     2.043810E-01
   1.496000E-01     7.022310E-03
   6.700000E-02    -2.678740E-03
   2.952000E-02     6.936900E-04
S 1 1.00
   1.193000E+01     1.000000E+00
S 1 1.00
   5.543000E+00     1.000000E+00
S 1 1.00
   2.675000E+00     1.000000E+00
S 1 1.00
   1.263000E+00     1.000000E+00
S 1 1.00
   5.883000E-01     1.000000E+00
S 1 1.00
   1.496000E-01     1.000000E+00
S 1 1.00
   6.700000E-02     1.000000E+00
S 1 1.00
   2.952000E-02     1.000000E+00
P 14 1.00
   1.441000E+03     1.524070E-04
   3.414000E+02     1.327640E-03
   1.107000E+02     7.219370E-03
   4.197000E+01     2.852050E-02
   1.749000E+01     8.653460E-02
   7.753000E+00     1.949500E-01
   3.534000E+00     3.120510E-01
   1.614000E+00     3.484760E-01
   7.299000E-01     2.188860E-01
   3.029000E-01     4.355790E-02
   1.583000E-01    -3.737470E-03
   8.190000E-02     3.051230E-03
   4.123000E-02    -8.669220E-04
   1.988000E-02     2.305170E-04
P 14 1.00
   1.441000E+03    -2.410310E-05
   3.414000E+02    -2.108090E-04
   1.107000E+02    -1.145300E-03
   4.197000E+01    -4.564170E-03
   1.749000E+01    -1.396030E-02
   7.753000E+00    -3.211050E-02
   3.534000E+00    -5.162170E-02
   1.614000E+00    -6.137130E-02
   7.299000E-01    -4.424650E-02
   3.029000E-01     5.231910E-02
   1.583000E-01     2.216920E-01
   8.190000E-02     3.952550E-01
   4.123000E-02     3.640780E-01
   1.988000E-02     9.779520E-02
P 1 1.00
   1.583000E-01     1.000000E+00
P 1 1.00
   8.190000E-02     1.000000E+00
P 1 1.00
   4.123000E-02     1.000000E+00
P 1 1.00
   1.988000E-02     1.000000E+00
P 1 1.00
   6.738800E+01     1.000000E+00
P 1 1.00
   2.475700E+01     1.000000E+00
P 1 1.00
   9.095100E+00     1.000000E+00
P 1 1.00
   3.341300E+00     1.000000E+00
D 1 1.00
   1.083700E+00     1.000000E+00
D 1 1.00
   4.968000E-01     1.000000E+00
D 1 1.00
   2.278000E-01     1.000000E+00
D 1 1.00
   1.044000E-01     1.000000E+00
D 1 1.00
   2.418400E+01     1.000000E+00
D 1 1.00
   1.142000E+01     1.000000E+00
D 1 1.00
   5.392900E+00     1.000000E+00
D 1 1.00
   2.546600E+00     1.000000E+00
F 1 1.00
   4.917000E-01     1.000000E+00
F 1 1.00
   2.764000E-01     1.000000E+00
F 1 1.00
   1.554000E-01     1.000000E+00
F 1 1.00
   1.316400E+01     1.000000E+00
F 1 1.00
   5.564200E+00     1.000000E+00
F 1 1.00
   2.351900E+00     1.000000E+00
G 1 1.00
   4.427000E-01     1.000000E+00
G 1 1.00
   2.311000E-01     1.000000E+00
G 1 1.00
   9.346800E+00     1.000000E+00
G 1 1.00
   3.516700E+00     1.000000E+00
H 1 1.00
   3.731000E-01     1.000000E+00
H 1 1.00
   6.718000E+00     1.000000E+00
S   1   1.00
      0.0108000              1.0000000
P   1   1.00
      0.0071000              1.0000000
D   1   1.00
      0.0371000              1.0000000
F   1   1.00
      0.0579000              1.0000000
G   1   1.00
      0.0947000              1.0000000
H   1   1.00
      0.1577000              1.0000000
****
$end

@@@@@@
$molecule
read
$end

$rem

jobtype sp
method CCSD(T)
xc_grid 000099000590
use_libpt true
basis gen
max_scf_cycles 200
thresh 14
scf_convergence 8
mem_total 128000
cc_memory 96000
cc_backend xm
mem_static 1500
symmetry false
sym_ignore true
scf_guess read
unrestricted true
scf_algorithm gdm
n_frozen_core 0
$end

$multipole_field
XX 0.0001
$end
$basis
****
H
aug-cc-pCV5Z
****
Mg     0
S 20 1.00
   2.968000E+06     1.971770E-06
   4.443000E+05     1.533620E-05
   1.011000E+05     8.068520E-05
   2.864000E+04     3.407710E-04
   9.343000E+03     1.241940E-03
   3.373000E+03     4.041240E-03
   1.316000E+03     1.197970E-02
   5.458000E+02     3.242530E-02
   2.381000E+02     7.893320E-02
   1.082000E+02     1.665750E-01
   5.080000E+01     2.828710E-01
   2.448000E+01     3.318900E-01
   1.193000E+01     2.032870E-01
   5.543000E+00     3.828970E-02
   2.675000E+00     3.089160E-04
   1.263000E+00     1.389070E-03
   5.883000E-01    -1.361590E-04
   1.496000E-01     8.553220E-05
   6.700000E-02    -5.691020E-05
   2.952000E-02     1.772590E-05
S 20 1.00
   2.968000E+06    -4.981600E-07
   4.443000E+05    -3.875630E-06
   1.011000E+05    -2.038540E-05
   2.864000E+04    -8.616590E-05
   9.343000E+03    -3.141760E-04
   3.373000E+03    -1.025770E-03
   1.316000E+03    -3.058160E-03
   5.458000E+02    -8.410630E-03
   2.381000E+02    -2.112020E-02
   1.082000E+02    -4.768820E-02
   5.080000E+01    -9.241190E-02
   2.448000E+01    -1.425480E-01
   1.193000E+01    -1.261680E-01
   5.543000E+00     7.152820E-02
   2.675000E+00     3.830390E-01
   1.263000E+00     4.901330E-01
   5.883000E-01     2.043810E-01
   1.496000E-01     7.022310E-03
   6.700000E-02    -2.678740E-03
   2.952000E-02     6.936900E-04
S 1 1.00
   1.193000E+01     1.000000E+00
S 1 1.00
   5.543000E+00     1.000000E+00
S 1 1.00
   2.675000E+00     1.000000E+00
S 1 1.00
   1.263000E+00     1.000000E+00
S 1 1.00
   5.883000E-01     1.000000E+00
S 1 1.00
   1.496000E-01     1.000000E+00
S 1 1.00
   6.700000E-02     1.000000E+00
S 1 1.00
   2.952000E-02     1.000000E+00
P 14 1.00
   1.441000E+03     1.524070E-04
   3.414000E+02     1.327640E-03
   1.107000E+02     7.219370E-03
   4.197000E+01     2.852050E-02
   1.749000E+01     8.653460E-02
   7.753000E+00     1.949500E-01
   3.534000E+00     3.120510E-01
   1.614000E+00     3.484760E-01
   7.299000E-01     2.188860E-01
   3.029000E-01     4.355790E-02
   1.583000E-01    -3.737470E-03
   8.190000E-02     3.051230E-03
   4.123000E-02    -8.669220E-04
   1.988000E-02     2.305170E-04
P 14 1.00
   1.441000E+03    -2.410310E-05
   3.414000E+02    -2.108090E-04
   1.107000E+02    -1.145300E-03
   4.197000E+01    -4.564170E-03
   1.749000E+01    -1.396030E-02
   7.753000E+00    -3.211050E-02
   3.534000E+00    -5.162170E-02
   1.614000E+00    -6.137130E-02
   7.299000E-01    -4.424650E-02
   3.029000E-01     5.231910E-02
   1.583000E-01     2.216920E-01
   8.190000E-02     3.952550E-01
   4.123000E-02     3.640780E-01
   1.988000E-02     9.779520E-02
P 1 1.00
   1.583000E-01     1.000000E+00
P 1 1.00
   8.190000E-02     1.000000E+00
P 1 1.00
   4.123000E-02     1.000000E+00
P 1 1.00
   1.988000E-02     1.000000E+00
P 1 1.00
   6.738800E+01     1.000000E+00
P 1 1.00
   2.475700E+01     1.000000E+00
P 1 1.00
   9.095100E+00     1.000000E+00
P 1 1.00
   3.341300E+00     1.000000E+00
D 1 1.00
   1.083700E+00     1.000000E+00
D 1 1.00
   4.968000E-01     1.000000E+00
D 1 1.00
   2.278000E-01     1.000000E+00
D 1 1.00
   1.044000E-01     1.000000E+00
D 1 1.00
   2.418400E+01     1.000000E+00
D 1 1.00
   1.142000E+01     1.000000E+00
D 1 1.00
   5.392900E+00     1.000000E+00
D 1 1.00
   2.546600E+00     1.000000E+00
F 1 1.00
   4.917000E-01     1.000000E+00
F 1 1.00
   2.764000E-01     1.000000E+00
F 1 1.00
   1.554000E-01     1.000000E+00
F 1 1.00
   1.316400E+01     1.000000E+00
F 1 1.00
   5.564200E+00     1.000000E+00
F 1 1.00
   2.351900E+00     1.000000E+00
G 1 1.00
   4.427000E-01     1.000000E+00
G 1 1.00
   2.311000E-01     1.000000E+00
G 1 1.00
   9.346800E+00     1.000000E+00
G 1 1.00
   3.516700E+00     1.000000E+00
H 1 1.00
   3.731000E-01     1.000000E+00
H 1 1.00
   6.718000E+00     1.000000E+00
S   1   1.00
      0.0108000              1.0000000
P   1   1.00
      0.0071000              1.0000000
D   1   1.00
      0.0371000              1.0000000
F   1   1.00
      0.0579000              1.0000000
G   1   1.00
      0.0947000              1.0000000
H   1   1.00
      0.1577000              1.0000000
****
$end
@@@@@@
$molecule
read
$end

$rem

jobtype sp
method CCSD(T)
xc_grid 000099000590
use_libpt true
basis gen
max_scf_cycles 200
thresh 14
scf_convergence 8
mem_total 128000
cc_memory 96000
cc_backend xm
mem_static 1500
symmetry false
sym_ignore true
scf_guess read
unrestricted true
scf_algorithm gdm
n_frozen_core 0
$end

$multipole_field
XX -0.0001
$end
$basis
****
H
aug-cc-pCV5Z
****
Mg     0
S 20 1.00
   2.968000E+06     1.971770E-06
   4.443000E+05     1.533620E-05
   1.011000E+05     8.068520E-05
   2.864000E+04     3.407710E-04
   9.343000E+03     1.241940E-03
   3.373000E+03     4.041240E-03
   1.316000E+03     1.197970E-02
   5.458000E+02     3.242530E-02
   2.381000E+02     7.893320E-02
   1.082000E+02     1.665750E-01
   5.080000E+01     2.828710E-01
   2.448000E+01     3.318900E-01
   1.193000E+01     2.032870E-01
   5.543000E+00     3.828970E-02
   2.675000E+00     3.089160E-04
   1.263000E+00     1.389070E-03
   5.883000E-01    -1.361590E-04
   1.496000E-01     8.553220E-05
   6.700000E-02    -5.691020E-05
   2.952000E-02     1.772590E-05
S 20 1.00
   2.968000E+06    -4.981600E-07
   4.443000E+05    -3.875630E-06
   1.011000E+05    -2.038540E-05
   2.864000E+04    -8.616590E-05
   9.343000E+03    -3.141760E-04
   3.373000E+03    -1.025770E-03
   1.316000E+03    -3.058160E-03
   5.458000E+02    -8.410630E-03
   2.381000E+02    -2.112020E-02
   1.082000E+02    -4.768820E-02
   5.080000E+01    -9.241190E-02
   2.448000E+01    -1.425480E-01
   1.193000E+01    -1.261680E-01
   5.543000E+00     7.152820E-02
   2.675000E+00     3.830390E-01
   1.263000E+00     4.901330E-01
   5.883000E-01     2.043810E-01
   1.496000E-01     7.022310E-03
   6.700000E-02    -2.678740E-03
   2.952000E-02     6.936900E-04
S 1 1.00
   1.193000E+01     1.000000E+00
S 1 1.00
   5.543000E+00     1.000000E+00
S 1 1.00
   2.675000E+00     1.000000E+00
S 1 1.00
   1.263000E+00     1.000000E+00
S 1 1.00
   5.883000E-01     1.000000E+00
S 1 1.00
   1.496000E-01     1.000000E+00
S 1 1.00
   6.700000E-02     1.000000E+00
S 1 1.00
   2.952000E-02     1.000000E+00
P 14 1.00
   1.441000E+03     1.524070E-04
   3.414000E+02     1.327640E-03
   1.107000E+02     7.219370E-03
   4.197000E+01     2.852050E-02
   1.749000E+01     8.653460E-02
   7.753000E+00     1.949500E-01
   3.534000E+00     3.120510E-01
   1.614000E+00     3.484760E-01
   7.299000E-01     2.188860E-01
   3.029000E-01     4.355790E-02
   1.583000E-01    -3.737470E-03
   8.190000E-02     3.051230E-03
   4.123000E-02    -8.669220E-04
   1.988000E-02     2.305170E-04
P 14 1.00
   1.441000E+03    -2.410310E-05
   3.414000E+02    -2.108090E-04
   1.107000E+02    -1.145300E-03
   4.197000E+01    -4.564170E-03
   1.749000E+01    -1.396030E-02
   7.753000E+00    -3.211050E-02
   3.534000E+00    -5.162170E-02
   1.614000E+00    -6.137130E-02
   7.299000E-01    -4.424650E-02
   3.029000E-01     5.231910E-02
   1.583000E-01     2.216920E-01
   8.190000E-02     3.952550E-01
   4.123000E-02     3.640780E-01
   1.988000E-02     9.779520E-02
P 1 1.00
   1.583000E-01     1.000000E+00
P 1 1.00
   8.190000E-02     1.000000E+00
P 1 1.00
   4.123000E-02     1.000000E+00
P 1 1.00
   1.988000E-02     1.000000E+00
P 1 1.00
   6.738800E+01     1.000000E+00
P 1 1.00
   2.475700E+01     1.000000E+00
P 1 1.00
   9.095100E+00     1.000000E+00
P 1 1.00
   3.341300E+00     1.000000E+00
D 1 1.00
   1.083700E+00     1.000000E+00
D 1 1.00
   4.968000E-01     1.000000E+00
D 1 1.00
   2.278000E-01     1.000000E+00
D 1 1.00
   1.044000E-01     1.000000E+00
D 1 1.00
   2.418400E+01     1.000000E+00
D 1 1.00
   1.142000E+01     1.000000E+00
D 1 1.00
   5.392900E+00     1.000000E+00
D 1 1.00
   2.546600E+00     1.000000E+00
F 1 1.00
   4.917000E-01     1.000000E+00
F 1 1.00
   2.764000E-01     1.000000E+00
F 1 1.00
   1.554000E-01     1.000000E+00
F 1 1.00
   1.316400E+01     1.000000E+00
F 1 1.00
   5.564200E+00     1.000000E+00
F 1 1.00
   2.351900E+00     1.000000E+00
G 1 1.00
   4.427000E-01     1.000000E+00
G 1 1.00
   2.311000E-01     1.000000E+00
G 1 1.00
   9.346800E+00     1.000000E+00
G 1 1.00
   3.516700E+00     1.000000E+00
H 1 1.00
   3.731000E-01     1.000000E+00
H 1 1.00
   6.718000E+00     1.000000E+00
S   1   1.00
      0.0108000              1.0000000
P   1   1.00
      0.0071000              1.0000000
D   1   1.00
      0.0371000              1.0000000
F   1   1.00
      0.0579000              1.0000000
G   1   1.00
      0.0947000              1.0000000
H   1   1.00
      0.1577000              1.0000000
****
$end
@@@@@@
$molecule
read
$end

$rem

jobtype sp
method CCSD(T)
xc_grid 000099000590
use_libpt true
basis gen
max_scf_cycles 200
thresh 14
scf_convergence 8
mem_total 128000
cc_memory 96000
cc_backend xm
mem_static 1500
symmetry false
sym_ignore true
scf_guess read
unrestricted true
scf_algorithm gdm
n_frozen_core 0
$end

$multipole_field
YY 0.0001
$end
$basis
****
H
aug-cc-pCV5Z
****
Mg     0
S 20 1.00
   2.968000E+06     1.971770E-06
   4.443000E+05     1.533620E-05
   1.011000E+05     8.068520E-05
   2.864000E+04     3.407710E-04
   9.343000E+03     1.241940E-03
   3.373000E+03     4.041240E-03
   1.316000E+03     1.197970E-02
   5.458000E+02     3.242530E-02
   2.381000E+02     7.893320E-02
   1.082000E+02     1.665750E-01
   5.080000E+01     2.828710E-01
   2.448000E+01     3.318900E-01
   1.193000E+01     2.032870E-01
   5.543000E+00     3.828970E-02
   2.675000E+00     3.089160E-04
   1.263000E+00     1.389070E-03
   5.883000E-01    -1.361590E-04
   1.496000E-01     8.553220E-05
   6.700000E-02    -5.691020E-05
   2.952000E-02     1.772590E-05
S 20 1.00
   2.968000E+06    -4.981600E-07
   4.443000E+05    -3.875630E-06
   1.011000E+05    -2.038540E-05
   2.864000E+04    -8.616590E-05
   9.343000E+03    -3.141760E-04
   3.373000E+03    -1.025770E-03
   1.316000E+03    -3.058160E-03
   5.458000E+02    -8.410630E-03
   2.381000E+02    -2.112020E-02
   1.082000E+02    -4.768820E-02
   5.080000E+01    -9.241190E-02
   2.448000E+01    -1.425480E-01
   1.193000E+01    -1.261680E-01
   5.543000E+00     7.152820E-02
   2.675000E+00     3.830390E-01
   1.263000E+00     4.901330E-01
   5.883000E-01     2.043810E-01
   1.496000E-01     7.022310E-03
   6.700000E-02    -2.678740E-03
   2.952000E-02     6.936900E-04
S 1 1.00
   1.193000E+01     1.000000E+00
S 1 1.00
   5.543000E+00     1.000000E+00
S 1 1.00
   2.675000E+00     1.000000E+00
S 1 1.00
   1.263000E+00     1.000000E+00
S 1 1.00
   5.883000E-01     1.000000E+00
S 1 1.00
   1.496000E-01     1.000000E+00
S 1 1.00
   6.700000E-02     1.000000E+00
S 1 1.00
   2.952000E-02     1.000000E+00
P 14 1.00
   1.441000E+03     1.524070E-04
   3.414000E+02     1.327640E-03
   1.107000E+02     7.219370E-03
   4.197000E+01     2.852050E-02
   1.749000E+01     8.653460E-02
   7.753000E+00     1.949500E-01
   3.534000E+00     3.120510E-01
   1.614000E+00     3.484760E-01
   7.299000E-01     2.188860E-01
   3.029000E-01     4.355790E-02
   1.583000E-01    -3.737470E-03
   8.190000E-02     3.051230E-03
   4.123000E-02    -8.669220E-04
   1.988000E-02     2.305170E-04
P 14 1.00
   1.441000E+03    -2.410310E-05
   3.414000E+02    -2.108090E-04
   1.107000E+02    -1.145300E-03
   4.197000E+01    -4.564170E-03
   1.749000E+01    -1.396030E-02
   7.753000E+00    -3.211050E-02
   3.534000E+00    -5.162170E-02
   1.614000E+00    -6.137130E-02
   7.299000E-01    -4.424650E-02
   3.029000E-01     5.231910E-02
   1.583000E-01     2.216920E-01
   8.190000E-02     3.952550E-01
   4.123000E-02     3.640780E-01
   1.988000E-02     9.779520E-02
P 1 1.00
   1.583000E-01     1.000000E+00
P 1 1.00
   8.190000E-02     1.000000E+00
P 1 1.00
   4.123000E-02     1.000000E+00
P 1 1.00
   1.988000E-02     1.000000E+00
P 1 1.00
   6.738800E+01     1.000000E+00
P 1 1.00
   2.475700E+01     1.000000E+00
P 1 1.00
   9.095100E+00     1.000000E+00
P 1 1.00
   3.341300E+00     1.000000E+00
D 1 1.00
   1.083700E+00     1.000000E+00
D 1 1.00
   4.968000E-01     1.000000E+00
D 1 1.00
   2.278000E-01     1.000000E+00
D 1 1.00
   1.044000E-01     1.000000E+00
D 1 1.00
   2.418400E+01     1.000000E+00
D 1 1.00
   1.142000E+01     1.000000E+00
D 1 1.00
   5.392900E+00     1.000000E+00
D 1 1.00
   2.546600E+00     1.000000E+00
F 1 1.00
   4.917000E-01     1.000000E+00
F 1 1.00
   2.764000E-01     1.000000E+00
F 1 1.00
   1.554000E-01     1.000000E+00
F 1 1.00
   1.316400E+01     1.000000E+00
F 1 1.00
   5.564200E+00     1.000000E+00
F 1 1.00
   2.351900E+00     1.000000E+00
G 1 1.00
   4.427000E-01     1.000000E+00
G 1 1.00
   2.311000E-01     1.000000E+00
G 1 1.00
   9.346800E+00     1.000000E+00
G 1 1.00
   3.516700E+00     1.000000E+00
H 1 1.00
   3.731000E-01     1.000000E+00
H 1 1.00
   6.718000E+00     1.000000E+00
S   1   1.00
      0.0108000              1.0000000
P   1   1.00
      0.0071000              1.0000000
D   1   1.00
      0.0371000              1.0000000
F   1   1.00
      0.0579000              1.0000000
G   1   1.00
      0.0947000              1.0000000
H   1   1.00
      0.1577000              1.0000000
****
$end

@@@@@@
$molecule
read
$end

$rem

jobtype sp
method CCSD(T)
xc_grid 000099000590
use_libpt true
basis gen
max_scf_cycles 200
thresh 14
scf_convergence 8
mem_total 128000
cc_memory 96000
cc_backend xm
mem_static 1500
symmetry false
sym_ignore true
scf_guess read
unrestricted true
scf_algorithm gdm
n_frozen_core 0
$end

$multipole_field
YY -0.0001
$end
$basis
****
H
aug-cc-pCV5Z
****
Mg     0
S 20 1.00
   2.968000E+06     1.971770E-06
   4.443000E+05     1.533620E-05
   1.011000E+05     8.068520E-05
   2.864000E+04     3.407710E-04
   9.343000E+03     1.241940E-03
   3.373000E+03     4.041240E-03
   1.316000E+03     1.197970E-02
   5.458000E+02     3.242530E-02
   2.381000E+02     7.893320E-02
   1.082000E+02     1.665750E-01
   5.080000E+01     2.828710E-01
   2.448000E+01     3.318900E-01
   1.193000E+01     2.032870E-01
   5.543000E+00     3.828970E-02
   2.675000E+00     3.089160E-04
   1.263000E+00     1.389070E-03
   5.883000E-01    -1.361590E-04
   1.496000E-01     8.553220E-05
   6.700000E-02    -5.691020E-05
   2.952000E-02     1.772590E-05
S 20 1.00
   2.968000E+06    -4.981600E-07
   4.443000E+05    -3.875630E-06
   1.011000E+05    -2.038540E-05
   2.864000E+04    -8.616590E-05
   9.343000E+03    -3.141760E-04
   3.373000E+03    -1.025770E-03
   1.316000E+03    -3.058160E-03
   5.458000E+02    -8.410630E-03
   2.381000E+02    -2.112020E-02
   1.082000E+02    -4.768820E-02
   5.080000E+01    -9.241190E-02
   2.448000E+01    -1.425480E-01
   1.193000E+01    -1.261680E-01
   5.543000E+00     7.152820E-02
   2.675000E+00     3.830390E-01
   1.263000E+00     4.901330E-01
   5.883000E-01     2.043810E-01
   1.496000E-01     7.022310E-03
   6.700000E-02    -2.678740E-03
   2.952000E-02     6.936900E-04
S 1 1.00
   1.193000E+01     1.000000E+00
S 1 1.00
   5.543000E+00     1.000000E+00
S 1 1.00
   2.675000E+00     1.000000E+00
S 1 1.00
   1.263000E+00     1.000000E+00
S 1 1.00
   5.883000E-01     1.000000E+00
S 1 1.00
   1.496000E-01     1.000000E+00
S 1 1.00
   6.700000E-02     1.000000E+00
S 1 1.00
   2.952000E-02     1.000000E+00
P 14 1.00
   1.441000E+03     1.524070E-04
   3.414000E+02     1.327640E-03
   1.107000E+02     7.219370E-03
   4.197000E+01     2.852050E-02
   1.749000E+01     8.653460E-02
   7.753000E+00     1.949500E-01
   3.534000E+00     3.120510E-01
   1.614000E+00     3.484760E-01
   7.299000E-01     2.188860E-01
   3.029000E-01     4.355790E-02
   1.583000E-01    -3.737470E-03
   8.190000E-02     3.051230E-03
   4.123000E-02    -8.669220E-04
   1.988000E-02     2.305170E-04
P 14 1.00
   1.441000E+03    -2.410310E-05
   3.414000E+02    -2.108090E-04
   1.107000E+02    -1.145300E-03
   4.197000E+01    -4.564170E-03
   1.749000E+01    -1.396030E-02
   7.753000E+00    -3.211050E-02
   3.534000E+00    -5.162170E-02
   1.614000E+00    -6.137130E-02
   7.299000E-01    -4.424650E-02
   3.029000E-01     5.231910E-02
   1.583000E-01     2.216920E-01
   8.190000E-02     3.952550E-01
   4.123000E-02     3.640780E-01
   1.988000E-02     9.779520E-02
P 1 1.00
   1.583000E-01     1.000000E+00
P 1 1.00
   8.190000E-02     1.000000E+00
P 1 1.00
   4.123000E-02     1.000000E+00
P 1 1.00
   1.988000E-02     1.000000E+00
P 1 1.00
   6.738800E+01     1.000000E+00
P 1 1.00
   2.475700E+01     1.000000E+00
P 1 1.00
   9.095100E+00     1.000000E+00
P 1 1.00
   3.341300E+00     1.000000E+00
D 1 1.00
   1.083700E+00     1.000000E+00
D 1 1.00
   4.968000E-01     1.000000E+00
D 1 1.00
   2.278000E-01     1.000000E+00
D 1 1.00
   1.044000E-01     1.000000E+00
D 1 1.00
   2.418400E+01     1.000000E+00
D 1 1.00
   1.142000E+01     1.000000E+00
D 1 1.00
   5.392900E+00     1.000000E+00
D 1 1.00
   2.546600E+00     1.000000E+00
F 1 1.00
   4.917000E-01     1.000000E+00
F 1 1.00
   2.764000E-01     1.000000E+00
F 1 1.00
   1.554000E-01     1.000000E+00
F 1 1.00
   1.316400E+01     1.000000E+00
F 1 1.00
   5.564200E+00     1.000000E+00
F 1 1.00
   2.351900E+00     1.000000E+00
G 1 1.00
   4.427000E-01     1.000000E+00
G 1 1.00
   2.311000E-01     1.000000E+00
G 1 1.00
   9.346800E+00     1.000000E+00
G 1 1.00
   3.516700E+00     1.000000E+00
H 1 1.00
   3.731000E-01     1.000000E+00
H 1 1.00
   6.718000E+00     1.000000E+00
S   1   1.00
      0.0108000              1.0000000
P   1   1.00
      0.0071000              1.0000000
D   1   1.00
      0.0371000              1.0000000
F   1   1.00
      0.0579000              1.0000000
G   1   1.00
      0.0947000              1.0000000
H   1   1.00
      0.1577000              1.0000000
****
$end
@@@@@@
$molecule
read
$end

$rem

jobtype sp
method CCSD(T)
xc_grid 000099000590
use_libpt true
basis gen
max_scf_cycles 200
thresh 14
scf_convergence 8
mem_total 128000
cc_memory 96000
cc_backend xm
mem_static 1500
symmetry false
sym_ignore true
scf_guess read
unrestricted true
scf_algorithm gdm
n_frozen_core 0
$end

$multipole_field
ZZ 0.0001
$end
$basis
****
H
aug-cc-pCV5Z
****
Mg     0
S 20 1.00
   2.968000E+06     1.971770E-06
   4.443000E+05     1.533620E-05
   1.011000E+05     8.068520E-05
   2.864000E+04     3.407710E-04
   9.343000E+03     1.241940E-03
   3.373000E+03     4.041240E-03
   1.316000E+03     1.197970E-02
   5.458000E+02     3.242530E-02
   2.381000E+02     7.893320E-02
   1.082000E+02     1.665750E-01
   5.080000E+01     2.828710E-01
   2.448000E+01     3.318900E-01
   1.193000E+01     2.032870E-01
   5.543000E+00     3.828970E-02
   2.675000E+00     3.089160E-04
   1.263000E+00     1.389070E-03
   5.883000E-01    -1.361590E-04
   1.496000E-01     8.553220E-05
   6.700000E-02    -5.691020E-05
   2.952000E-02     1.772590E-05
S 20 1.00
   2.968000E+06    -4.981600E-07
   4.443000E+05    -3.875630E-06
   1.011000E+05    -2.038540E-05
   2.864000E+04    -8.616590E-05
   9.343000E+03    -3.141760E-04
   3.373000E+03    -1.025770E-03
   1.316000E+03    -3.058160E-03
   5.458000E+02    -8.410630E-03
   2.381000E+02    -2.112020E-02
   1.082000E+02    -4.768820E-02
   5.080000E+01    -9.241190E-02
   2.448000E+01    -1.425480E-01
   1.193000E+01    -1.261680E-01
   5.543000E+00     7.152820E-02
   2.675000E+00     3.830390E-01
   1.263000E+00     4.901330E-01
   5.883000E-01     2.043810E-01
   1.496000E-01     7.022310E-03
   6.700000E-02    -2.678740E-03
   2.952000E-02     6.936900E-04
S 1 1.00
   1.193000E+01     1.000000E+00
S 1 1.00
   5.543000E+00     1.000000E+00
S 1 1.00
   2.675000E+00     1.000000E+00
S 1 1.00
   1.263000E+00     1.000000E+00
S 1 1.00
   5.883000E-01     1.000000E+00
S 1 1.00
   1.496000E-01     1.000000E+00
S 1 1.00
   6.700000E-02     1.000000E+00
S 1 1.00
   2.952000E-02     1.000000E+00
P 14 1.00
   1.441000E+03     1.524070E-04
   3.414000E+02     1.327640E-03
   1.107000E+02     7.219370E-03
   4.197000E+01     2.852050E-02
   1.749000E+01     8.653460E-02
   7.753000E+00     1.949500E-01
   3.534000E+00     3.120510E-01
   1.614000E+00     3.484760E-01
   7.299000E-01     2.188860E-01
   3.029000E-01     4.355790E-02
   1.583000E-01    -3.737470E-03
   8.190000E-02     3.051230E-03
   4.123000E-02    -8.669220E-04
   1.988000E-02     2.305170E-04
P 14 1.00
   1.441000E+03    -2.410310E-05
   3.414000E+02    -2.108090E-04
   1.107000E+02    -1.145300E-03
   4.197000E+01    -4.564170E-03
   1.749000E+01    -1.396030E-02
   7.753000E+00    -3.211050E-02
   3.534000E+00    -5.162170E-02
   1.614000E+00    -6.137130E-02
   7.299000E-01    -4.424650E-02
   3.029000E-01     5.231910E-02
   1.583000E-01     2.216920E-01
   8.190000E-02     3.952550E-01
   4.123000E-02     3.640780E-01
   1.988000E-02     9.779520E-02
P 1 1.00
   1.583000E-01     1.000000E+00
P 1 1.00
   8.190000E-02     1.000000E+00
P 1 1.00
   4.123000E-02     1.000000E+00
P 1 1.00
   1.988000E-02     1.000000E+00
P 1 1.00
   6.738800E+01     1.000000E+00
P 1 1.00
   2.475700E+01     1.000000E+00
P 1 1.00
   9.095100E+00     1.000000E+00
P 1 1.00
   3.341300E+00     1.000000E+00
D 1 1.00
   1.083700E+00     1.000000E+00
D 1 1.00
   4.968000E-01     1.000000E+00
D 1 1.00
   2.278000E-01     1.000000E+00
D 1 1.00
   1.044000E-01     1.000000E+00
D 1 1.00
   2.418400E+01     1.000000E+00
D 1 1.00
   1.142000E+01     1.000000E+00
D 1 1.00
   5.392900E+00     1.000000E+00
D 1 1.00
   2.546600E+00     1.000000E+00
F 1 1.00
   4.917000E-01     1.000000E+00
F 1 1.00
   2.764000E-01     1.000000E+00
F 1 1.00
   1.554000E-01     1.000000E+00
F 1 1.00
   1.316400E+01     1.000000E+00
F 1 1.00
   5.564200E+00     1.000000E+00
F 1 1.00
   2.351900E+00     1.000000E+00
G 1 1.00
   4.427000E-01     1.000000E+00
G 1 1.00
   2.311000E-01     1.000000E+00
G 1 1.00
   9.346800E+00     1.000000E+00
G 1 1.00
   3.516700E+00     1.000000E+00
H 1 1.00
   3.731000E-01     1.000000E+00
H 1 1.00
   6.718000E+00     1.000000E+00
S   1   1.00
      0.0108000              1.0000000
P   1   1.00
      0.0071000              1.0000000
D   1   1.00
      0.0371000              1.0000000
F   1   1.00
      0.0579000              1.0000000
G   1   1.00
      0.0947000              1.0000000
H   1   1.00
      0.1577000              1.0000000
****
$end
@@@@@@
$molecule
read
$end

$rem

jobtype sp
method CCSD(T)
xc_grid 000099000590
use_libpt true
basis gen
max_scf_cycles 200
thresh 14
scf_convergence 8
mem_total 128000
cc_memory 96000
cc_backend xm
mem_static 1500
symmetry false
sym_ignore true
scf_guess read
unrestricted true
scf_algorithm gdm
n_frozen_core 0
$end

$multipole_field
ZZ -0.0001
$end
$basis
****
H
aug-cc-pCV5Z
****
Mg     0
S 20 1.00
   2.968000E+06     1.971770E-06
   4.443000E+05     1.533620E-05
   1.011000E+05     8.068520E-05
   2.864000E+04     3.407710E-04
   9.343000E+03     1.241940E-03
   3.373000E+03     4.041240E-03
   1.316000E+03     1.197970E-02
   5.458000E+02     3.242530E-02
   2.381000E+02     7.893320E-02
   1.082000E+02     1.665750E-01
   5.080000E+01     2.828710E-01
   2.448000E+01     3.318900E-01
   1.193000E+01     2.032870E-01
   5.543000E+00     3.828970E-02
   2.675000E+00     3.089160E-04
   1.263000E+00     1.389070E-03
   5.883000E-01    -1.361590E-04
   1.496000E-01     8.553220E-05
   6.700000E-02    -5.691020E-05
   2.952000E-02     1.772590E-05
S 20 1.00
   2.968000E+06    -4.981600E-07
   4.443000E+05    -3.875630E-06
   1.011000E+05    -2.038540E-05
   2.864000E+04    -8.616590E-05
   9.343000E+03    -3.141760E-04
   3.373000E+03    -1.025770E-03
   1.316000E+03    -3.058160E-03
   5.458000E+02    -8.410630E-03
   2.381000E+02    -2.112020E-02
   1.082000E+02    -4.768820E-02
   5.080000E+01    -9.241190E-02
   2.448000E+01    -1.425480E-01
   1.193000E+01    -1.261680E-01
   5.543000E+00     7.152820E-02
   2.675000E+00     3.830390E-01
   1.263000E+00     4.901330E-01
   5.883000E-01     2.043810E-01
   1.496000E-01     7.022310E-03
   6.700000E-02    -2.678740E-03
   2.952000E-02     6.936900E-04
S 1 1.00
   1.193000E+01     1.000000E+00
S 1 1.00
   5.543000E+00     1.000000E+00
S 1 1.00
   2.675000E+00     1.000000E+00
S 1 1.00
   1.263000E+00     1.000000E+00
S 1 1.00
   5.883000E-01     1.000000E+00
S 1 1.00
   1.496000E-01     1.000000E+00
S 1 1.00
   6.700000E-02     1.000000E+00
S 1 1.00
   2.952000E-02     1.000000E+00
P 14 1.00
   1.441000E+03     1.524070E-04
   3.414000E+02     1.327640E-03
   1.107000E+02     7.219370E-03
   4.197000E+01     2.852050E-02
   1.749000E+01     8.653460E-02
   7.753000E+00     1.949500E-01
   3.534000E+00     3.120510E-01
   1.614000E+00     3.484760E-01
   7.299000E-01     2.188860E-01
   3.029000E-01     4.355790E-02
   1.583000E-01    -3.737470E-03
   8.190000E-02     3.051230E-03
   4.123000E-02    -8.669220E-04
   1.988000E-02     2.305170E-04
P 14 1.00
   1.441000E+03    -2.410310E-05
   3.414000E+02    -2.108090E-04
   1.107000E+02    -1.145300E-03
   4.197000E+01    -4.564170E-03
   1.749000E+01    -1.396030E-02
   7.753000E+00    -3.211050E-02
   3.534000E+00    -5.162170E-02
   1.614000E+00    -6.137130E-02
   7.299000E-01    -4.424650E-02
   3.029000E-01     5.231910E-02