$molecule
0 2
Na
$end

$rem
jobtype sp
method CCSD(T)
xc_grid 000099000590
use_libpt true
basis gen
max_scf_cycles 200
thresh 14
scf_convergence 8
scf_algorithm gdm
symmetry false
sym_ignore true
unrestricted true
gen_scfman true
internal_stability_iter 15
internal_stability_davidson_iter 200
mem_total 128000
cc_memory 96000
cc_backend xm
mem_static 1500
n_frozen_core 0
$end
$basis
****
H
aug-cc-pCV5Z
****
Na     0
S 20 1.00
   2.185572E+06     2.000000E-06
   3.272284E+05     1.800000E-05
   7.446684E+04     9.500000E-05
   2.109315E+04     4.010000E-04
   6.881898E+03     1.459000E-03
   2.484696E+03     4.746000E-03
   9.692232E+02     1.403100E-02
   4.020643E+02     3.773300E-02
   1.753545E+02     9.070200E-02
   7.965199E+01     1.864660E-01
   3.738672E+01     3.018370E-01
   1.800194E+01     3.238300E-01
   8.724371E+00     1.687000E-01
   3.857715E+00     2.308300E-02
   1.815686E+00    -1.470000E-04
   8.382540E-01     1.099000E-03
   3.819350E-01    -1.010000E-04
   7.167900E-02     6.100000E-05
   3.391600E-02    -5.300000E-05
   1.652500E-02     1.800000E-05
S 20 1.00
   2.185572E+06    -1.000000E-06
   3.272284E+05    -4.000000E-06
   7.446684E+04    -2.300000E-05
   2.109315E+04    -9.800000E-05
   6.881898E+03    -3.570000E-04
   2.484696E+03    -1.165000E-03
   9.692232E+02    -3.464000E-03
   4.020643E+02    -9.495000E-03
   1.753545E+02    -2.358700E-02
   7.965199E+01    -5.239400E-02
   3.738672E+01    -9.802800E-02
   1.800194E+01    -1.436730E-01
   8.724371E+00    -1.022980E-01
   3.857715E+00     1.380290E-01
   1.815686E+00     4.290060E-01
   8.382540E-01     4.478130E-01
   3.819350E-01     1.445430E-01
   7.167900E-02     2.617000E-03
   3.391600E-02    -1.192000E-03
   1.652500E-02     4.400000E-04
S 1 1.00
   8.724371E+00     1.000000E+00
S 1 1.00
   3.857715E+00     1.000000E+00
S 1 1.00
   1.815686E+00     1.000000E+00
S 1 1.00
   8.382540E-01     1.000000E+00
S 1 1.00
   3.819350E-01     1.000000E+00
S 1 1.00
   7.167900E-02     1.000000E+00
S 1 1.00
   3.391600E-02     1.000000E+00
S 1 1.00
   1.652500E-02     1.000000E+00
P 14 1.00
   1.119578E+03     1.620000E-04
   2.653239E+02     1.408000E-03
   8.599553E+01     7.586000E-03
   3.253759E+01     2.961500E-02
   1.351565E+01     8.847700E-02
   5.966856E+00     1.955190E-01
   2.700045E+00     3.066210E-01
   1.218512E+00     3.412420E-01
   5.421870E-01     2.296900E-01
   2.274130E-01     5.492100E-02
   1.330400E-01    -3.441000E-03
   5.757700E-02     2.340000E-03
   2.597100E-02    -6.620000E-04
   1.190100E-02     1.990000E-04
P 14 1.00
   1.119578E+03    -1.600000E-05
   2.653239E+02    -1.400000E-04
   8.599553E+01    -7.540000E-04
   3.253759E+01    -2.968000E-03
   1.351565E+01    -8.919000E-03
   5.966856E+00    -2.002900E-02
   2.700045E+00    -3.138000E-02
   1.218512E+00    -3.648900E-02
   5.421870E-01    -2.962500E-02
   2.274130E-01    -1.014600E-02
   1.330400E-01     8.212800E-02
   5.757700E-02     3.345530E-01
   2.597100E-02     5.081420E-01
   1.190100E-02     1.966360E-01
P 1 1.00
   1.330400E-01     1.000000E+00
P 1 1.00
   5.757700E-02     1.000000E+00
P 1 1.00
   2.597100E-02     1.000000E+00
P 1 1.00
   1.190100E-02     1.000000E+00
P 1 1.00
   1.096200E+01     1.000000E+00
P 1 1.00
   4.989600E+00     1.000000E+00
P 1 1.00
   2.271200E+00     1.000000E+00
P 1 1.00
   1.033800E+00     1.000000E+00
D 1 1.00
   4.898000E-01     1.000000E+00
D 1 1.00
   2.283000E-01     1.000000E+00
D 1 1.00
   1.064000E-01     1.000000E+00
D 1 1.00
   4.960000E-02     1.000000E+00
D 1 1.00
   1.647900E+01     1.000000E+00
D 1 1.00
   7.331500E+00     1.000000E+00
D 1 1.00
   3.261800E+00     1.000000E+00
D 1 1.00
   1.451200E+00     1.000000E+00
F 1 1.00
   2.493000E-01     1.000000E+00
F 1 1.00
   1.357000E-01     1.000000E+00
F 1 1.00
   7.390000E-02     1.000000E+00
F 1 1.00
   9.722700E+00     1.000000E+00
F 1 1.00
   3.988100E+00     1.000000E+00
F 1 1.00
   1.635900E+00     1.000000E+00
G 1 1.00
   2.318000E-01     1.000000E+00
G 1 1.00
   1.222000E-01     1.000000E+00
G 1 1.00
   7.225000E+00     1.000000E+00
G 1 1.00
   2.647100E+00     1.000000E+00
H 1 1.00
   2.240000E-01     1.000000E+00
H 1 1.00
   5.134600E+00     1.000000E+00
S   1   1.00
      0.0051000              1.0000000
P   1   1.00
      0.0055000              1.0000000
D   1   1.00
      0.0229000              1.0000000
F   1   1.00
      0.0414000              1.0000000
G   1   1.00
      0.0732000              1.0000000
H   1   1.00
      0.1048000              1.0000000
****
$end

@@@@@@
$molecule
read
$end

$rem

jobtype sp
method CCSD(T)
xc_grid 000099000590
use_libpt true
basis gen
max_scf_cycles 200
thresh 14
scf_convergence 8
mem_total 128000
cc_memory 96000
cc_backend xm
mem_static 1500
symmetry false
sym_ignore true
scf_guess read
unrestricted true
scf_algorithm gdm
n_frozen_core 0
$end

$multipole_field
XX 0.0001
$end

$basis
****
H
aug-cc-pCV5Z
****
Na     0
S 20 1.00
   2.185572E+06     2.000000E-06
   3.272284E+05     1.800000E-05
   7.446684E+04     9.500000E-05
   2.109315E+04     4.010000E-04
   6.881898E+03     1.459000E-03
   2.484696E+03     4.746000E-03
   9.692232E+02     1.403100E-02
   4.020643E+02     3.773300E-02
   1.753545E+02     9.070200E-02
   7.965199E+01     1.864660E-01
   3.738672E+01     3.018370E-01
   1.800194E+01     3.238300E-01
   8.724371E+00     1.687000E-01
   3.857715E+00     2.308300E-02
   1.815686E+00    -1.470000E-04
   8.382540E-01     1.099000E-03
   3.819350E-01    -1.010000E-04
   7.167900E-02     6.100000E-05
   3.391600E-02    -5.300000E-05
   1.652500E-02     1.800000E-05
S 20 1.00
   2.185572E+06    -1.000000E-06
   3.272284E+05    -4.000000E-06
   7.446684E+04    -2.300000E-05
   2.109315E+04    -9.800000E-05
   6.881898E+03    -3.570000E-04
   2.484696E+03    -1.165000E-03
   9.692232E+02    -3.464000E-03
   4.020643E+02    -9.495000E-03
   1.753545E+02    -2.358700E-02
   7.965199E+01    -5.239400E-02
   3.738672E+01    -9.802800E-02
   1.800194E+01    -1.436730E-01
   8.724371E+00    -1.022980E-01
   3.857715E+00     1.380290E-01
   1.815686E+00     4.290060E-01
   8.382540E-01     4.478130E-01
   3.819350E-01     1.445430E-01
   7.167900E-02     2.617000E-03
   3.391600E-02    -1.192000E-03
   1.652500E-02     4.400000E-04
S 1 1.00
   8.724371E+00     1.000000E+00
S 1 1.00
   3.857715E+00     1.000000E+00
S 1 1.00
   1.815686E+00     1.000000E+00
S 1 1.00
   8.382540E-01     1.000000E+00
S 1 1.00
   3.819350E-01     1.000000E+00
S 1 1.00
   7.167900E-02     1.000000E+00
S 1 1.00
   3.391600E-02     1.000000E+00
S 1 1.00
   1.652500E-02     1.000000E+00
P 14 1.00
   1.119578E+03     1.620000E-04
   2.653239E+02     1.408000E-03
   8.599553E+01     7.586000E-03
   3.253759E+01     2.961500E-02
   1.351565E+01     8.847700E-02
   5.966856E+00     1.955190E-01
   2.700045E+00     3.066210E-01
   1.218512E+00     3.412420E-01
   5.421870E-01     2.296900E-01
   2.274130E-01     5.492100E-02
   1.330400E-01    -3.441000E-03
   5.757700E-02     2.340000E-03
   2.597100E-02    -6.620000E-04
   1.190100E-02     1.990000E-04
P 14 1.00
   1.119578E+03    -1.600000E-05
   2.653239E+02    -1.400000E-04
   8.599553E+01    -7.540000E-04
   3.253759E+01    -2.968000E-03
   1.351565E+01    -8.919000E-03
   5.966856E+00    -2.002900E-02
   2.700045E+00    -3.138000E-02
   1.218512E+00    -3.648900E-02
   5.421870E-01    -2.962500E-02
   2.274130E-01    -1.014600E-02
   1.330400E-01     8.212800E-02
   5.757700E-02     3.345530E-01
   2.597100E-02     5.081420E-01
   1.190100E-02     1.966360E-01
P 1 1.00
   1.330400E-01     1.000000E+00
P 1 1.00
   5.757700E-02     1.000000E+00
P 1 1.00
   2.597100E-02     1.000000E+00
P 1 1.00
   1.190100E-02     1.000000E+00
P 1 1.00
   1.096200E+01     1.000000E+00
P 1 1.00
   4.989600E+00     1.000000E+00
P 1 1.00
   2.271200E+00     1.000000E+00
P 1 1.00
   1.033800E+00     1.000000E+00
D 1 1.00
   4.898000E-01     1.000000E+00
D 1 1.00
   2.283000E-01     1.000000E+00
D 1 1.00
   1.064000E-01     1.000000E+00
D 1 1.00
   4.960000E-02     1.000000E+00
D 1 1.00
   1.647900E+01     1.000000E+00
D 1 1.00
   7.331500E+00     1.000000E+00
D 1 1.00
   3.261800E+00     1.000000E+00
D 1 1.00
   1.451200E+00     1.000000E+00
F 1 1.00
   2.493000E-01     1.000000E+00
F 1 1.00
   1.357000E-01     1.000000E+00
F 1 1.00
   7.390000E-02     1.000000E+00
F 1 1.00
   9.722700E+00     1.000000E+00
F 1 1.00
   3.988100E+00     1.000000E+00
F 1 1.00
   1.635900E+00     1.000000E+00
G 1 1.00
   2.318000E-01     1.000000E+00
G 1 1.00
   1.222000E-01     1.000000E+00
G 1 1.00
   7.225000E+00     1.000000E+00
G 1 1.00
   2.647100E+00     1.000000E+00
H 1 1.00
   2.240000E-01     1.000000E+00
H 1 1.00
   5.134600E+00     1.000000E+00
S   1   1.00
      0.0051000              1.0000000
P   1   1.00
      0.0055000              1.0000000
D   1   1.00
      0.0229000              1.0000000
F   1   1.00
      0.0414000              1.0000000
G   1   1.00
      0.0732000              1.0000000
H   1   1.00
      0.1048000              1.0000000
****
$end
@@@@@@
$molecule
read
$end

$rem

jobtype sp
method CCSD(T)
xc_grid 000099000590
use_libpt true
basis gen
max_scf_cycles 200
thresh 14
scf_convergence 8
mem_total 128000
cc_memory 96000
cc_backend xm
mem_static 1500
symmetry false
sym_ignore true
scf_guess read
unrestricted true
scf_algorithm gdm
n_frozen_core 0
$end
$basis
****
H
aug-cc-pCV5Z
****
Na     0
S 20 1.00
   2.185572E+06     2.000000E-06
   3.272284E+05     1.800000E-05
   7.446684E+04     9.500000E-05
   2.109315E+04     4.010000E-04
   6.881898E+03     1.459000E-03
   2.484696E+03     4.746000E-03
   9.692232E+02     1.403100E-02
   4.020643E+02     3.773300E-02
   1.753545E+02     9.070200E-02
   7.965199E+01     1.864660E-01
   3.738672E+01     3.018370E-01
   1.800194E+01     3.238300E-01
   8.724371E+00     1.687000E-01
   3.857715E+00     2.308300E-02
   1.815686E+00    -1.470000E-04
   8.382540E-01     1.099000E-03
   3.819350E-01    -1.010000E-04
   7.167900E-02     6.100000E-05
   3.391600E-02    -5.300000E-05
   1.652500E-02     1.800000E-05
S 20 1.00
   2.185572E+06    -1.000000E-06
   3.272284E+05    -4.000000E-06
   7.446684E+04    -2.300000E-05
   2.109315E+04    -9.800000E-05
   6.881898E+03    -3.570000E-04
   2.484696E+03    -1.165000E-03
   9.692232E+02    -3.464000E-03
   4.020643E+02    -9.495000E-03
   1.753545E+02    -2.358700E-02
   7.965199E+01    -5.239400E-02
   3.738672E+01    -9.802800E-02
   1.800194E+01    -1.436730E-01
   8.724371E+00    -1.022980E-01
   3.857715E+00     1.380290E-01
   1.815686E+00     4.290060E-01
   8.382540E-01     4.478130E-01
   3.819350E-01     1.445430E-01
   7.167900E-02     2.617000E-03
   3.391600E-02    -1.192000E-03
   1.652500E-02     4.400000E-04
S 1 1.00
   8.724371E+00     1.000000E+00
S 1 1.00
   3.857715E+00     1.000000E+00
S 1 1.00
   1.815686E+00     1.000000E+00
S 1 1.00
   8.382540E-01     1.000000E+00
S 1 1.00
   3.819350E-01     1.000000E+00
S 1 1.00
   7.167900E-02     1.000000E+00
S 1 1.00
   3.391600E-02     1.000000E+00
S 1 1.00
   1.652500E-02     1.000000E+00
P 14 1.00
   1.119578E+03     1.620000E-04
   2.653239E+02     1.408000E-03
   8.599553E+01     7.586000E-03
   3.253759E+01     2.961500E-02
   1.351565E+01     8.847700E-02
   5.966856E+00     1.955190E-01
   2.700045E+00     3.066210E-01
   1.218512E+00     3.412420E-01
   5.421870E-01     2.296900E-01
   2.274130E-01     5.492100E-02
   1.330400E-01    -3.441000E-03
   5.757700E-02     2.340000E-03
   2.597100E-02    -6.620000E-04
   1.190100E-02     1.990000E-04
P 14 1.00
   1.119578E+03    -1.600000E-05
   2.653239E+02    -1.400000E-04
   8.599553E+01    -7.540000E-04
   3.253759E+01    -2.968000E-03
   1.351565E+01    -8.919000E-03
   5.966856E+00    -2.002900E-02
   2.700045E+00    -3.138000E-02
   1.218512E+00    -3.648900E-02
   5.421870E-01    -2.962500E-02
   2.274130E-01    -1.014600E-02
   1.330400E-01     8.212800E-02
   5.757700E-02     3.345530E-01
   2.597100E-02     5.081420E-01
   1.190100E-02     1.966360E-01
P 1 1.00
   1.330400E-01     1.000000E+00
P 1 1.00
   5.757700E-02     1.000000E+00
P 1 1.00
   2.597100E-02     1.000000E+00
P 1 1.00
   1.190100E-02     1.000000E+00
P 1 1.00
   1.096200E+01     1.000000E+00
P 1 1.00
   4.989600E+00     1.000000E+00
P 1 1.00
   2.271200E+00     1.000000E+00
P 1 1.00
   1.033800E+00     1.000000E+00
D 1 1.00
   4.898000E-01     1.000000E+00
D 1 1.00
   2.283000E-01     1.000000E+00
D 1 1.00
   1.064000E-01     1.000000E+00
D 1 1.00
   4.960000E-02     1.000000E+00
D 1 1.00
   1.647900E+01     1.000000E+00
D 1 1.00
   7.331500E+00     1.000000E+00
D 1 1.00
   3.261800E+00     1.000000E+00
D 1 1.00
   1.451200E+00     1.000000E+00
F 1 1.00
   2.493000E-01     1.000000E+00
F 1 1.00
   1.357000E-01     1.000000E+00
F 1 1.00
   7.390000E-02     1.000000E+00
F 1 1.00
   9.722700E+00     1.000000E+00
F 1 1.00
   3.988100E+00     1.000000E+00
F 1 1.00
   1.635900E+00     1.000000E+00
G 1 1.00
   2.318000E-01     1.000000E+00
G 1 1.00
   1.222000E-01     1.000000E+00
G 1 1.00
   7.225000E+00     1.000000E+00
G 1 1.00
   2.647100E+00     1.000000E+00
H 1 1.00
   2.240000E-01     1.000000E+00
H 1 1.00
   5.134600E+00     1.000000E+00
S   1   1.00
      0.0051000              1.0000000
P   1   1.00
      0.0055000              1.0000000
D   1   1.00
      0.0229000              1.0000000
F   1   1.00
      0.0414000              1.0000000
G   1   1.00
      0.0732000              1.0000000
H   1   1.00
      0.1048000              1.0000000
****
$end

$multipole_field
XX -0.0001
$end


@@@@@@
$molecule
read
$end

$rem

jobtype sp
method CCSD(T)
xc_grid 000099000590
use_libpt true
basis gen
max_scf_cycles 200
thresh 14
scf_convergence 8
mem_total 128000
cc_memory 96000
cc_backend xm
mem_static 1500
symmetry false
sym_ignore true
scf_guess read
unrestricted true
scf_algorithm gdm
n_frozen_core 0
$end

$multipole_field
YY 0.0001
$end

$basis
****
H
aug-cc-pCV5Z
****
Na     0
S 20 1.00
   2.185572E+06     2.000000E-06
   3.272284E+05     1.800000E-05
   7.446684E+04     9.500000E-05
   2.109315E+04     4.010000E-04
   6.881898E+03     1.459000E-03
   2.484696E+03     4.746000E-03
   9.692232E+02     1.403100E-02
   4.020643E+02     3.773300E-02
   1.753545E+02     9.070200E-02
   7.965199E+01     1.864660E-01
   3.738672E+01     3.018370E-01
   1.800194E+01     3.238300E-01
   8.724371E+00     1.687000E-01
   3.857715E+00     2.308300E-02
   1.815686E+00    -1.470000E-04
   8.382540E-01     1.099000E-03
   3.819350E-01    -1.010000E-04
   7.167900E-02     6.100000E-05
   3.391600E-02    -5.300000E-05
   1.652500E-02     1.800000E-05
S 20 1.00
   2.185572E+06    -1.000000E-06
   3.272284E+05    -4.000000E-06
   7.446684E+04    -2.300000E-05
   2.109315E+04    -9.800000E-05
   6.881898E+03    -3.570000E-04
   2.484696E+03    -1.165000E-03
   9.692232E+02    -3.464000E-03
   4.020643E+02    -9.495000E-03
   1.753545E+02    -2.358700E-02
   7.965199E+01    -5.239400E-02
   3.738672E+01    -9.802800E-02
   1.800194E+01    -1.436730E-01
   8.724371E+00    -1.022980E-01
   3.857715E+00     1.380290E-01
   1.815686E+00     4.290060E-01
   8.382540E-01     4.478130E-01
   3.819350E-01     1.445430E-01
   7.167900E-02     2.617000E-03
   3.391600E-02    -1.192000E-03
   1.652500E-02     4.400000E-04
S 1 1.00
   8.724371E+00     1.000000E+00
S 1 1.00
   3.857715E+00     1.000000E+00
S 1 1.00
   1.815686E+00     1.000000E+00
S 1 1.00
   8.382540E-01     1.000000E+00
S 1 1.00
   3.819350E-01     1.000000E+00
S 1 1.00
   7.167900E-02     1.000000E+00
S 1 1.00
   3.391600E-02     1.000000E+00
S 1 1.00
   1.652500E-02     1.000000E+00
P 14 1.00
   1.119578E+03     1.620000E-04
   2.653239E+02     1.408000E-03
   8.599553E+01     7.586000E-03
   3.253759E+01     2.961500E-02
   1.351565E+01     8.847700E-02
   5.966856E+00     1.955190E-01
   2.700045E+00     3.066210E-01
   1.218512E+00     3.412420E-01
   5.421870E-01     2.296900E-01
   2.274130E-01     5.492100E-02
   1.330400E-01    -3.441000E-03
   5.757700E-02     2.340000E-03
   2.597100E-02    -6.620000E-04
   1.190100E-02     1.990000E-04
P 14 1.00
   1.119578E+03    -1.600000E-05
   2.653239E+02    -1.400000E-04
   8.599553E+01    -7.540000E-04
   3.253759E+01    -2.968000E-03
   1.351565E+01    -8.919000E-03
   5.966856E+00    -2.002900E-02
   2.700045E+00    -3.138000E-02
   1.218512E+00    -3.648900E-02
   5.421870E-01    -2.962500E-02
   2.274130E-01    -1.014600E-02
   1.330400E-01     8.212800E-02
   5.757700E-02     3.345530E-01
   2.597100E-02     5.081420E-01
   1.190100E-02     1.966360E-01
P 1 1.00
   1.330400E-01     1.000000E+00
P 1 1.00
   5.757700E-02     1.000000E+00
P 1 1.00
   2.597100E-02     1.000000E+00
P 1 1.00
   1.190100E-02     1.000000E+00
P 1 1.00
   1.096200E+01     1.000000E+00
P 1 1.00
   4.989600E+00     1.000000E+00
P 1 1.00
   2.271200E+00     1.000000E+00
P 1 1.00
   1.033800E+00     1.000000E+00
D 1 1.00
   4.898000E-01     1.000000E+00
D 1 1.00
   2.283000E-01     1.000000E+00
D 1 1.00
   1.064000E-01     1.000000E+00
D 1 1.00
   4.960000E-02     1.000000E+00
D 1 1.00
   1.647900E+01     1.000000E+00
D 1 1.00
   7.331500E+00     1.000000E+00
D 1 1.00
   3.261800E+00     1.000000E+00
D 1 1.00
   1.451200E+00     1.000000E+00
F 1 1.00
   2.493000E-01     1.000000E+00
F 1 1.00
   1.357000E-01     1.000000E+00
F 1 1.00
   7.390000E-02     1.000000E+00
F 1 1.00
   9.722700E+00     1.000000E+00
F 1 1.00
   3.988100E+00     1.000000E+00
F 1 1.00
   1.635900E+00     1.000000E+00
G 1 1.00
   2.318000E-01     1.000000E+00
G 1 1.00
   1.222000E-01     1.000000E+00
G 1 1.00
   7.225000E+00     1.000000E+00
G 1 1.00
   2.647100E+00     1.000000E+00
H 1 1.00
   2.240000E-01     1.000000E+00
H 1 1.00
   5.134600E+00     1.000000E+00
S   1   1.00
      0.0051000              1.0000000
P   1   1.00
      0.0055000              1.0000000
D   1   1.00
      0.0229000              1.0000000
F   1   1.00
      0.0414000              1.0000000
G   1   1.00
      0.0732000              1.0000000
H   1   1.00
      0.1048000              1.0000000
****
$end
@@@@@@
$molecule
read
$end

$rem

jobtype sp
method CCSD(T)
xc_grid 000099000590
use_libpt true
basis gen
max_scf_cycles 200
thresh 14
scf_convergence 8
mem_total 128000
cc_memory 96000
cc_backend xm
mem_static 1500
symmetry false
sym_ignore true
scf_guess read
unrestricted true
scf_algorithm gdm
n_frozen_core 0
$end
$basis
****
H
aug-cc-pCV5Z
****
Na     0
S 20 1.00
   2.185572E+06     2.000000E-06
   3.272284E+05     1.800000E-05
   7.446684E+04     9.500000E-05
   2.109315E+04     4.010000E-04
   6.881898E+03     1.459000E-03
   2.484696E+03     4.746000E-03
   9.692232E+02     1.403100E-02
   4.020643E+02     3.773300E-02
   1.753545E+02     9.070200E-02
   7.965199E+01     1.864660E-01
   3.738672E+01     3.018370E-01
   1.800194E+01     3.238300E-01
   8.724371E+00     1.687000E-01
   3.857715E+00     2.308300E-02
   1.815686E+00    -1.470000E-04
   8.382540E-01     1.099000E-03
   3.819350E-01    -1.010000E-04
   7.167900E-02     6.100000E-05
   3.391600E-02    -5.300000E-05
   1.652500E-02     1.800000E-05
S 20 1.00
   2.185572E+06    -1.000000E-06
   3.272284E+05    -4.000000E-06
   7.446684E+04    -2.300000E-05
   2.109315E+04    -9.800000E-05
   6.881898E+03    -3.570000E-04
   2.484696E+03    -1.165000E-03
   9.692232E+02    -3.464000E-03
   4.020643E+02    -9.495000E-03
   1.753545E+02    -2.358700E-02
   7.965199E+01    -5.239400E-02
   3.738672E+01    -9.802800E-02
   1.800194E+01    -1.436730E-01
   8.724371E+00    -1.022980E-01
   3.857715E+00     1.380290E-01
   1.815686E+00     4.290060E-01
   8.382540E-01     4.478130E-01
   3.819350E-01     1.445430E-01
   7.167900E-02     2.617000E-03
   3.391600E-02    -1.192000E-03
   1.652500E-02     4.400000E-04
S 1 1.00
   8.724371E+00     1.000000E+00
S 1 1.00
   3.857715E+00     1.000000E+00
S 1 1.00
   1.815686E+00     1.000000E+00
S 1 1.00
   8.382540E-01     1.000000E+00
S 1 1.00
   3.819350E-01     1.000000E+00
S 1 1.00
   7.167900E-02     1.000000E+00
S 1 1.00
   3.391600E-02     1.000000E+00
S 1 1.00
   1.652500E-02     1.000000E+00
P 14 1.00
   1.119578E+03     1.620000E-04
   2.653239E+02     1.408000E-03
   8.599553E+01     7.586000E-03
   3.253759E+01     2.961500E-02
   1.351565E+01     8.847700E-02
   5.966856E+00     1.955190E-01
   2.700045E+00     3.066210E-01
   1.218512E+00     3.412420E-01
   5.421870E-01     2.296900E-01
   2.274130E-01     5.492100E-02
   1.330400E-01    -3.441000E-03
   5.757700E-02     2.340000E-03
   2.597100E-02    -6.620000E-04
   1.190100E-02     1.990000E-04
P 14 1.00
   1.119578E+03    -1.600000E-05
   2.653239E+02    -1.400000E-04
   8.599553E+01    -7.540000E-04
   3.253759E+01    -2.968000E-03
   1.351565E+01    -8.919000E-03
   5.966856E+00    -2.002900E-02
   2.700045E+00    -3.138000E-02
   1.218512E+00    -3.648900E-02
   5.421870E-01    -2.962500E-02
   2.274130E-01    -1.014600E-02
   1.330400E-01     8.212800E-02
   5.757700E-02     3.345530E-01
   2.597100E-02     5.081420E-01
   1.190100E-02     1.966360E-01
P 1 1.00
   1.330400E-01     1.000000E+00
P 1 1.00
   5.757700E-02     1.000000E+00
P 1 1.00
   2.597100E-02     1.000000E+00
P 1 1.00
   1.190100E-02     1.000000E+00
P 1 1.00
   1.096200E+01     1.000000E+00
P 1 1.00
   4.989600E+00     1.000000E+00
P 1 1.00
   2.271200E+00     1.000000E+00
P 1 1.00
   1.033800E+00     1.000000E+00
D 1 1.00
   4.898000E-01     1.000000E+00
D 1 1.00
   2.283000E-01     1.000000E+00
D 1 1.00
   1.064000E-01     1.000000E+00
D 1 1.00
   4.960000E-02     1.000000E+00
D 1 1.00
   1.647900E+01     1.000000E+00
D 1 1.00
   7.331500E+00     1.000000E+00
D 1 1.00
   3.261800E+00     1.000000E+00
D 1 1.00
   1.451200E+00     1.000000E+00
F 1 1.00
   2.493000E-01     1.000000E+00
F 1 1.00
   1.357000E-01     1.000000E+00
F 1 1.00
   7.390000E-02     1.000000E+00
F 1 1.00
   9.722700E+00     1.000000E+00
F 1 1.00
   3.988100E+00     1.000000E+00
F 1 1.00
   1.635900E+00     1.000000E+00
G 1 1.00
   2.318000E-01     1.000000E+00
G 1 1.00
   1.222000E-01     1.000000E+00
G 1 1.00
   7.225000E+00     1.000000E+00
G 1 1.00
   2.647100E+00     1.000000E+00
H 1 1.00
   2.240000E-01     1.000000E+00
H 1 1.00
   5.134600E+00     1.000000E+00
S   1   1.00
      0.0051000              1.0000000
P   1   1.00
      0.0055000              1.0000000
D   1   1.00
      0.0229000              1.0000000
F   1   1.00
      0.0414000              1.0000000
G   1   1.00
      0.0732000              1.0000000
H   1   1.00
      0.1048000              1.0000000
****
$end
$multipole_field
YY -0.0001
$end


@@@@@@
$molecule
read
$end

$rem

jobtype sp
method CCSD(T)
xc_grid 000099000590
use_libpt true
basis gen
max_scf_cycles 200
thresh 14
scf_convergence 8
mem_total 128000
cc_memory 96000
cc_backend xm
mem_static 1500
symmetry false
sym_ignore true
scf_guess read
unrestricted true
scf_algorithm gdm
n_frozen_core 0
$end
$basis
****
H
aug-cc-pCV5Z
****
Na     0
S 20 1.00
   2.185572E+06     2.000000E-06
   3.272284E+05     1.800000E-05
   7.446684E+04     9.500000E-05
   2.109315E+04     4.010000E-04
   6.881898E+03     1.459000E-03
   2.484696E+03     4.746000E-03
   9.692232E+02     1.403100E-02
   4.020643E+02     3.773300E-02
   1.753545E+02     9.070200E-02
   7.965199E+01     1.864660E-01
   3.738672E+01     3.018370E-01
   1.800194E+01     3.238300E-01
   8.724371E+00     1.687000E-01
   3.857715E+00     2.308300E-02
   1.815686E+00    -1.470000E-04
   8.382540E-01     1.099000E-03
   3.819350E-01    -1.010000E-04
   7.167900E-02     6.100000E-05
   3.391600E-02    -5.300000E-05
   1.652500E-02     1.800000E-05
S 20 1.00
   2.185572E+06    -1.000000E-06
   3.272284E+05    -4.000000E-06
   7.446684E+04    -2.300000E-05
   2.109315E+04    -9.800000E-05
   6.881898E+03    -3.570000E-04
   2.484696E+03    -1.165000E-03
   9.692232E+02    -3.464000E-03
   4.020643E+02    -9.495000E-03
   1.753545E+02    -2.358700E-02
   7.965199E+01    -5.239400E-02
   3.738672E+01    -9.802800E-02
   1.800194E+01    -1.436730E-01
   8.724371E+00    -1.022980E-01
   3.857715E+00     1.380290E-01
   1.815686E+00     4.290060E-01
   8.382540E-01     4.478130E-01
   3.819350E-01     1.445430E-01
   7.167900E-02     2.617000E-03
   3.391600E-02    -1.192000E-03
   1.652500E-02     4.400000E-04
S 1 1.00
   8.724371E+00     1.000000E+00
S 1 1.00
   3.857715E+00     1.000000E+00
S 1 1.00
   1.815686E+00     1.000000E+00
S 1 1.00
   8.382540E-01     1.000000E+00
S 1 1.00
   3.819350E-01     1.000000E+00
S 1 1.00
   7.167900E-02     1.000000E+00
S 1 1.00
   3.391600E-02     1.000000E+00
S 1 1.00
   1.652500E-02     1.000000E+00
P 14 1.00
   1.119578E+03     1.620000E-04
   2.653239E+02     1.408000E-03
   8.599553E+01     7.586000E-03
   3.253759E+01     2.961500E-02
   1.351565E+01     8.847700E-02
   5.966856E+00     1.955190E-01
   2.700045E+00     3.066210E-01
   1.218512E+00     3.412420E-01
   5.421870E-01     2.296900E-01
   2.274130E-01     5.492100E-02
   1.330400E-01    -3.441000E-03
   5.757700E-02     2.340000E-03
   2.597100E-02    -6.620000E-04
   1.190100E-02     1.990000E-04
P 14 1.00
   1.119578E+03    -1.600000E-05
   2.653239E+02    -1.400000E-04
   8.599553E+01    -7.540000E-04
   3.253759E+01    -2.968000E-03
   1.351565E+01    -8.919000E-03
   5.966856E+00    -2.002900E-02
   2.700045E+00    -3.138000E-02
   1.218512E+00    -3.648900E-02
   5.421870E-01    -2.962500E-02
   2.274130E-01    -1.014600E-02
   1.330400E-01     8.212800E-02
   5.757700E-02     3.345530E-01
   2.597100E-02     5.081420E-01
   1.190100E-02     1.966360E-01
P 1 1.00
   1.330400E-01     1.000000E+00
P 1 1.00
   5.757700E-02     1.000000E+00
P 1 1.00
   2.597100E-02     1.000000E+00
P 1 1.00
   1.190100E-02     1.000000E+00
P 1 1.00
   1.096200E+01     1.000000E+00
P 1 1.00
   4.989600E+00     1.000000E+00
P 1 1.00
   2.271200E+00     1.000000E+00
P 1 1.00
   1.033800E+00     1.000000E+00
D 1 1.00
   4.898000E-01     1.000000E+00
D 1 1.00
   2.283000E-01     1.000000E+00
D 1 1.00
   1.064000E-01     1.000000E+00
D 1 1.00
   4.960000E-02     1.000000E+00
D 1 1.00
   1.647900E+01     1.000000E+00
D 1 1.00
   7.331500E+00     1.000000E+00
D 1 1.00
   3.261800E+00     1.000000E+00
D 1 1.00
   1.451200E+00     1.000000E+00
F 1 1.00
   2.493000E-01     1.000000E+00
F 1 1.00
   1.357000E-01     1.000000E+00
F 1 1.00
   7.390000E-02     1.000000E+00
F 1 1.00
   9.722700E+00     1.000000E+00
F 1 1.00
   3.988100E+00     1.000000E+00
F 1 1.00
   1.635900E+00     1.000000E+00
G 1 1.00
   2.318000E-01     1.000000E+00
G 1 1.00
   1.222000E-01     1.000000E+00
G 1 1.00
   7.225000E+00     1.000000E+00
G 1 1.00
   2.647100E+00     1.000000E+00
H 1 1.00
   2.240000E-01     1.000000E+00
H 1 1.00
   5.134600E+00     1.000000E+00
S   1   1.00
      0.0051000              1.0000000
P   1   1.00
      0.0055000              1.0000000
D   1   1.00
      0.0229000              1.0000000
F   1   1.00
      0.0414000              1.0000000
G   1   1.00
      0.0732000              1.0000000
H   1   1.00
      0.1048000              1.0000000
****
$end

$multipole_field
ZZ 0.0001
$end


@@@@@@
$molecule
read
$end

$rem

jobtype sp
method CCSD(T)
xc_grid 000099000590
use_libpt true
basis gen
max_scf_cycles 200
thresh 14
scf_convergence 8
mem_total 128000
cc_memory 96000
cc_backend xm
mem_static 1500
symmetry false
sym_ignore true
scf_guess read
unrestricted true
scf_algorithm gdm
n_frozen_core 0
$end
$basis
****
H
aug-cc-pCV5Z
****
Na     0
S 20 1.00
   2.185572E+06     2.000000E-06
   3.272284E+05     1.800000E-05
   7.446684E+04     9.500000E-05
   2.109315E+04     4.010000E-04
   6.881898E+03     1.459000E-03
   2.484696E+03     4.746000E-03
   9.692232E+02     1.403100E-02
   4.020643E+02     3.773300E-02
   1.753545E+02     9.070200E-02
   7.965199E+01     1.864660E-01
   3.738672E+01     3.018370E-01
   1.800194E+01     3.238300E-01
   8.724371E+00     1.687000E-01
   3.857715E+00     2.308300E-02
   1.815686E+00    -1.470000E-04
   8.382540E-01     1.099000E-03
   3.819350E-01    -1.010000E-04
   7.167900E-02     6.100000E-05
   3.391600E-02    -5.300000E-05
   1.652500E-02     1.800000E-05
S 20 1.00
   2.185572E+06    -1.000000E-06
   3.272284E+05    -4.000000E-06
   7.446684E+04    -2.300000E-05
   2.109315E+04    -9.800000E-05
   6.881898E+03    -3.570000E-04
   2.484696E+03    -1.165000E-03
   9.692232E+02    -3.464000E-03
   4.020643E+02    -9.495000E-03
   1.753545E+02    -2.358700E-02
   7.965199E+01    -5.239400E-02
   3.738672E+01    -9.802800E-02
   1.800194E+01    -1.436730E-01
   8.724371E+00    -1.022980E-01
   3.857715E+00     1.380290E-01
   1.815686E+00     4.290060E-01
   8.382540E-01     4.478130E-01
   3.819350E-01     1.445430E-01
   7.167900E-02     2.617000E-03
   3.391600E-02    -1.192000E-03
   1.652500E-02     4.400000E-04
S 1 1.00
   8.724371E+00     1.000000E+00
S 1 1.00
   3.857715E+00     1.000000E+00
S 1 1.00
   1.815686E+00     1.000000E+00
S 1 1.00
   8.382540E-01     1.000000E+00
S 1 1.00
   3.819350E-01     1.000000E+00
S 1 1.00
   7.167900E-02     1.000000E+00
S 1 1.00
   3.391600E-02     1.000000E+00
S 1 1.00
   1.652500E-02     1.000000E+00
P 14 1.00
   1.119578E+03     1.620000E-04
   2.653239E+02     1.408000E-03
   8.599553E+01     7.586000E-03
   3.253759E+01     2.961500E-02
   1.351565E+01     8.847700E-02
   5.966856E+00     1.955190E-01
   2.700045E+00     3.066210E-01
   1.218512E+00     3.412420E-01
   5.421870E-01     2.296900E-01
   2.274130E-01     5.492100E-02
   1.330400E-01    -3.441000E-03
   5.757700E-02     2.340000E-03
   2.597100E-02    -6.620000E-04
   1.190100E-02     1.990000E-04
P 14 1.00
   1.119578E+03    -1.600000E-05
   2.653239E+02    -1.400000E-04
   8.599553E+01    -7.540000E-04
   3.253759E+01    -2.968000E-03
   1.351565E+01    -8.919000E-03
   5.966856E+00    -2.002900E-02
   2.700045E+00    -3.138000E-02
   1.218512E+00    -3.648900E-02
   5.421870E-01    -2.962500E-02
   2.274130E-01    -1.014600E-02
   1.330400E-01     8.212800E-02