$molecule
0 1
B        0.0000000000      0.0000000000      0.0000000000
F        0.0000000000      0.0000000000      1.3157000000
H        0.0000000000      1.0599000000     -0.5569000000
H        0.0000000000     -1.0599000000     -0.5569000000
$end

$rem
jobtype sp
exchange gen
xc_grid 000099000590
basis aug-pc-4
max_scf_cycles 400
thresh 14
scf_convergence 8
scf_algorithm gdm
symmetry false
sym_ignore true
omega 300
lrc_dft true
combine_k true
HFK_SR_COEF 015000000
HFK_LR_COEF 100000000
unrestricted true
gen_scfman true
internal_stability_iter 15
internal_stability_davidson_iter 200
mem_total 64000
mem_static 1500
n_frozen_core 0
$end

$xc_functional
X wB97M-V 1.0
C wB97M-V 1.0
$end


@@@@@@@@
$molecule
read
$end

$rem
jobtype sp
method wB97M-V
xc_grid 000099000590
basis aug-pc-4
max_scf_cycles 200
thresh 14
scf_convergence 5
scf_algorithm gdm
symmetry false
sym_ignore true
unrestricted true
internal_stability_iter 15
internal_stability_davidson_iter 200
gen_scfman true
mem_total 64000
mem_static 1500
n_frozen_core 0
scf_guess read
$end
