$molecule 
0 1
C1	0.0000	0.0000	0.6013
C2	0.0000	0.0000	-0.6013
H3	0.0000	0.0000	1.6644
H4	0.0000	0.0000	-1.6644
$end

$rem
jobtype sp
method B97-D3
xc_grid 000099000590
basis aug-pc-4
max_scf_cycles 200
thresh 14
scf_convergence 8
scf_algorithm gdm
symmetry false
sym_ignore true
unrestricted true
gen_scfman true
internal_stability_iter 15
internal_stability_davidson_iter 200
mem_total 64000
mem_static 1500
n_frozen_core 0
$end

    