$molecule
0 2
C1      0.0488  0.7245  0.0000
C2      0.0488  -0.5915 0.0000
H3      -0.6836 1.5182  0.0000
H4      -0.8763 -1.1584 0.0000
H5      0.9739  -1.1584 0.0000
$end

$rem
jobtype sp
method PBE
xc_grid 000099000590
basis aug-pc-4
max_scf_cycles 200
thresh 14
scf_convergence 8
scf_algorithm gdm
symmetry false
sym_ignore true
unrestricted true
gen_scfman true
internal_stability_iter 15
internal_stability_davidson_iter 200
mem_total 64000
mem_static 1500
n_frozen_core 0
$end

    