$molecule
0 3
C1	0.0000	0.0000	0.1027
H2	0.0000	1.0042	-0.3081
H3	0.0000	-1.0042	-0.3081
$end

$rem
jobtype sp
exchange gen
xc_grid 000099000590
basis aug-pc-4
max_scf_cycles 400
thresh 14
scf_convergence 8
scf_algorithm gdm
symmetry false
sym_ignore true
omega 300
lrc_dft true
combine_k true
HFK_SR_COEF 015000000
HFK_LR_COEF 100000000
unrestricted true
gen_scfman true
internal_stability_iter 15
internal_stability_davidson_iter 200
mem_total 64000
mem_static 1500
n_frozen_core 0
$end

$xc_functional
X wB97X-V 1.0
C wB97X-V 1.0
$end


@@@@@@@@

$molecule
read
$end

$rem
jobtype sp
method wB97X-V
xc_grid 000099000590
basis aug-pc-4
max_scf_cycles 400
thresh 14
scf_convergence 6
scf_algorithm gdm
symmetry false
sym_ignore true
unrestricted true
gen_scfman true
mem_total 64000
mem_static 1500
n_frozen_core 0
scf_guess read
$end
