$molecule
0 2
        C        -0.0287000000    0.6550000000    0.0000000000
        F        -0.0287000000   -0.6819000000    0.0000000000
        H         0.2150000000    1.1036000000    0.9474000000
        H         0.2150000000    1.1036000000   -0.9474000000
$end

$rem
jobtype sp
method SCAN
xc_grid 000099000590
basis aug-pc-4
max_scf_cycles 200
thresh 14
scf_convergence 8
scf_algorithm gdm
symmetry false
sym_ignore true
unrestricted true
gen_scfman true
internal_stability_iter 15
internal_stability_davidson_iter 200
mem_total 64000
mem_static 1500
n_frozen_core 0
$end

    