$molecule
0 1
C1      0.0588 0        0.5875
N2      0.0588 0        -0.6855
H3      -0.8621 0       1.1946
H4      0.9977 0        1.1231
H5      -0.8995 0       -1.0438
$end

$rem
jobtype sp
method PBE
xc_grid 000099000590
basis aug-pc-4
max_scf_cycles 200
thresh 14
scf_convergence 8
scf_algorithm gdm
symmetry false
sym_ignore true
unrestricted true
gen_scfman true
internal_stability_iter 15
internal_stability_davidson_iter 200
mem_total 64000
mem_static 1500
n_frozen_core 0
$end

    