$molecule
0 1
        C        -0.0190572749   -0.6845195756   -0.0000000839
        B        -0.0207972952    0.8729523951   -0.0000000656
        H         1.0512614815   -0.9395660726    0.0000010826
        H        -0.4362896177   -1.1431007759    0.8927422542
        H        -0.4362878975   -1.1431009662   -0.8927431359
        H         0.0151838060    1.4835176231   -1.0228906497
        H         0.0151867978    1.4835173722    1.0228905983
$end

$rem
jobtype sp
method CAM-B3LYP
xc_grid 000099000590
basis aug-pc-4
max_scf_cycles 200
thresh 14
scf_convergence 8
scf_algorithm gdm
symmetry false
sym_ignore true
unrestricted true
gen_scfman true
internal_stability_iter 15
internal_stability_davidson_iter 200
mem_total 64000
mem_static 1500
n_frozen_core 0
$end

    