$molecule
0 1
        C       0.0000000000     0.0000000000    -0.0942000000
        C       0.0000000000     0.0000000000    -1.2922000000
         F       0.0000000000     0.0000000000     1.1848000000
         H       0.0000000000     0.0000000000    -2.3452000000
$end

$rem
jobtype sp
method wB97M-V
xc_grid 000099000590
basis aug-pc-4
max_scf_cycles 200
thresh 14
scf_convergence 8
scf_algorithm gdm
symmetry false
sym_ignore true
unrestricted true
gen_scfman true
internal_stability_iter 15
internal_stability_davidson_iter 200
mem_total 64000
mem_static 1500
n_frozen_core 0
$end

    