$molecule
0 1
N         1.0375899124    0.1438382012    0.0000000000
S        -0.5437813358   -0.0126986493    0.0000000000
H         1.4373719861   -0.8036890193    0.0000000000
$end

$rem
jobtype sp
method B97M-V
xc_grid 000099000590
basis aug-pc-4
max_scf_cycles 200
thresh 14
scf_convergence 8
scf_algorithm gdm
symmetry false
sym_ignore true
unrestricted true
gen_scfman true
internal_stability_iter 15
internal_stability_davidson_iter 200
mem_total 64000
mem_static 1500
n_frozen_core 0
$end

    