$molecule
0 2
O1	0.0553	-0.6132	0.0000
O2	0.0553	0.7198	0.0000
H3	-0.8853	-0.8528	0.0000
$end

$rem
jobtype sp
method BPEB
xc_grid 000099000590
basis aug-pc-4
max_scf_cycles 200
thresh 14
scf_convergence 8
scf_algorithm gdm
symmetry false
sym_ignore true
unrestricted true
gen_scfman true
internal_stability_iter 15
internal_stability_davidson_iter 200
mem_total 64000
mem_static 1500
n_frozen_core 0
$end

    