$molecule
0 1
          N       0.0000000000     0.0000000000     0.0000000000
          H       0.0000000000     0.0000000000     1.0337770000
          N       1.1649590602     0.0000000000    -0.4597566182
          H       1.8709666930     0.0000000000     0.2953911212
$end

$rem
jobtype sp
method mBEEF
xc_grid 000099000590
basis aug-pc-4
max_scf_cycles 200
thresh 14
scf_convergence 8
scf_algorithm gdm
symmetry false
sym_ignore true
unrestricted true
gen_scfman true
internal_stability_iter 15
internal_stability_davidson_iter 200
mem_total 64000
mem_static 1500
n_frozen_core 0
$end

    