$molecule
0 1
N1      0.0000  0.7230  -0.1123
N2      0.0000  -0.7230 -0.1123
H3      -0.4470 1.0031  0.7562
H4      0.4470  -1.0031 0.7562
H5      0.9663  1.0031  0.0301
H6      -0.9663 -1.0031 0.0301
$end

$rem
jobtype sp
method SPW92
xc_grid 000099000590
basis aug-pc-4
max_scf_cycles 200
thresh 14
scf_convergence 8
scf_algorithm gdm
symmetry false
sym_ignore true
unrestricted true
gen_scfman true
internal_stability_iter 15
internal_stability_davidson_iter 200
mem_total 64000
mem_static 1500
n_frozen_core 0
$end

    