$molecule
0 1
          Cl      0.0000000000     0.0000000000     0.0000000000
          N       0.0000000000     0.0000000000     1.7475500000
          H       0.9877064288     0.0000000000     1.9857191054
          H      -0.3322887804    -0.9301334032     1.9857191227
$end

$rem
jobtype sp
method BLYP
xc_grid 000099000590
basis aug-pc-4
max_scf_cycles 200
thresh 14
scf_convergence 8
scf_algorithm gdm
symmetry false
sym_ignore true
unrestricted true
gen_scfman true
internal_stability_iter 15
internal_stability_davidson_iter 200
mem_total 64000
mem_static 1500
n_frozen_core 0
$end

    