$molecule
0 1
N1      -0.0094 0.7040  0.0000
O2      -0.0094 -0.7490 0.0000
H3      -0.9525 -0.9386 0.0000
H4      0.5469  1.0012  0.7965
H5      0.5469  1.0012  -0.7965
$end

$rem
jobtype sp
method M06-2X
xc_grid 000099000590
basis aug-pc-4
max_scf_cycles 200
thresh 14
scf_convergence 8
scf_algorithm gdm
symmetry false
sym_ignore true
unrestricted true
gen_scfman true
internal_stability_iter 15
internal_stability_davidson_iter 200
mem_total 64000
mem_static 1500
n_frozen_core 0
$end

    