$molecule
0 1
N        0.0000000000      0.0000000000     -0.5344777797
H       -0.9458001927      0.0000000000     -0.9350779673
H        0.4729000069     -0.8190998435     -0.9350776619
H        0.4729000069      0.8190998435     -0.9350776619
O        0.0000000000      0.0000000000      0.8183222203
$end

$rem
exchange gen
basis aug-pc-4
symmetry false
sym_ignore true
omega 300
lrc_dft true
combine_k true
HFK_SR_COEF 015000000
HFK_LR_COEF 100000000
xc_grid 000099000590
scf_convergence 8
unrestricted true
gen_scfman true
internal_stability_iter 15
internal_stability_davidson_iter 200
mem_total 64000
mem_static 1500
n_frozen_core 0
$end

$xc_functional
X wB97X-V 1.0
C wB97X-V 1.0
$end



@@@@@@@@
$molecule
read
$end

$rem
jobtype sp
method wB97X-V
xc_grid 000099000590
basis aug-pc-4
max_scf_cycles 400
thresh 14
scf_convergence 8
scf_algorithm gdm
symmetry false
sym_ignore true
unrestricted true
internal_stability_iter 15
internal_stability_davidson_iter 200
gen_scfman true
mem_total 64000
mem_static 1500
n_frozen_core 0
scf_guess read
$end
