$molecule
0 1
Be
$end

$rem
jobtype sp
method CCSD(T)
xc_grid 000099000590
basis gen
max_scf_cycles 200
thresh 14
scf_convergence 8
scf_algorithm gdm
symmetry false
sym_ignore true
unrestricted True
gen_scfman true
internal_stability_iter 15
internal_stability_davidson_iter 200
mem_total 128000
cc_memory 96000
cc_backend xm
mem_static 1500
n_frozen_core 0
$end

$basis
****
Be     0
S   14   1.00
  54620.0000000              1.8000000e-05
   8180.0000000              1.3800000e-04
   1862.0000000              7.2300000e-04
    527.3000000              3.0390000e-03
    172.0000000              1.0908000e-02
     62.1000000              3.4035000e-02
     24.2100000              9.1193000e-02
      9.9930000              1.9926800e-01
      4.3050000              3.2935500e-01
      1.9210000              3.4048900e-01
      0.8663000              1.4374000e-01
      0.2475000              6.5170000e-03
      0.1009000             -1.8650000e-03
      0.0412900              4.8000000e-04
S   14   1.00
  54620.0000000             -3.0000000e-06
   8180.0000000             -2.5000000e-05
   1862.0000000             -1.3100000e-04
    527.3000000             -5.5800000e-04
    172.0000000             -1.9880000e-03
     62.1000000             -6.3700000e-03
     24.2100000             -1.7217000e-02
      9.9930000             -4.0858000e-02
      4.3050000             -7.4237000e-02
      1.9210000             -1.1923400e-01
      0.8663000             -8.7777000e-02
      0.2475000              2.7878800e-01
      0.1009000              5.8349900e-01
      0.0412900              2.6900700e-01
S   1   1.00
      0.8663000              1.0000000e+00
S   1   1.00
      0.2475000              1.0000000e+00
S   1   1.00
      0.1009000              1.0000000e+00
S   1   1.00
      0.0412900              1.0000000e+00
P   8   1.00
     43.7500000              6.3300000e-04
     10.3300000              4.8080000e-03
      3.2260000              2.0527000e-02
      1.1270000              6.7816000e-02
      0.4334000              1.9286800e-01
      0.1808000              3.7869200e-01
      0.0782700              4.0057400e-01
      0.0337200              1.3806700e-01
P   1   1.00
      0.4334000              1.0000000e+00
P   1   1.00
      0.1808000              1.0000000e+00
P   1   1.00
      0.0782700              1.0000000e+00
P   1   1.00
      0.0337200              1.0000000e+00
D   1   1.00
      1.7175000              1.0000000e+00
D   1   1.00
      0.7646000              1.0000000e+00
D   1   1.00
      0.3404000              1.0000000e+00
D   1   1.00
      0.1515000              1.0000000e+00
F   1   1.00
      0.6127000              1.0000000e+00
F   1   1.00
      0.3568000              1.0000000e+00
F   1   1.00
      0.2078000              1.0000000e+00
G   1   1.00
      0.5980000              1.0000000e+00
G   1   1.00
      0.3183000              1.0000000e+00
H   1   1.00
      0.5142000              1.0000000e+00
S   1   1.00
     51.1620000              1.0000000        
S   1   1.00
     23.1700000              1.0000000        
S   1   1.00
     10.4930000              1.0000000        
S   1   1.00
      4.7521000              1.0000000       
P   1   1.00
     56.4100000              1.0000000
P   1   1.00
     22.0430000              1.0000000
P   1   1.00
      8.6139000              1.0000000
P   1   1.00
      3.3661000              1.0000000
D   1   1.00
     41.4200000              1.0000000        
D   1   1.00
     15.6510000              1.0000000        
D   1   1.00
      5.9140000              1.0000000        
F   1   1.00
     24.1030000              1.0000000        
F   1   1.00
      7.6834000              1.0000000        
G   1   1.00
     15.8210000              1.0000000        
S   1   1.00
      0.0128000              1.0000000        
P   1   1.00
      0.0076000              1.0000000        
D   1   1.00
      0.0428000              1.0000000        
F   1   1.00
      0.0719000              1.0000000        
G   1   1.00
      0.0979000              1.0000000        
H   1   1.00
      0.2033000              1.0000000        
****
$end
    
@@@@@@
$molecule
read
$end

$rem

jobtype sp
method CCSD(T)
xc_grid 000099000590
basis gen
max_scf_cycles 200
thresh 14
scf_convergence 8
mem_total 128000
cc_memory 96000
cc_backend xm
mem_static 1500
symmetry false
sym_ignore true
scf_guess read
unrestricted True
scf_algorithm gdm
n_frozen_core 0
$end

$multipole_field
XX 0.0001
$end

$basis
****
Be     0
S   14   1.00
  54620.0000000              1.8000000e-05
   8180.0000000              1.3800000e-04
   1862.0000000              7.2300000e-04
    527.3000000              3.0390000e-03
    172.0000000              1.0908000e-02
     62.1000000              3.4035000e-02
     24.2100000              9.1193000e-02
      9.9930000              1.9926800e-01
      4.3050000              3.2935500e-01
      1.9210000              3.4048900e-01
      0.8663000              1.4374000e-01
      0.2475000              6.5170000e-03
      0.1009000             -1.8650000e-03
      0.0412900              4.8000000e-04
S   14   1.00
  54620.0000000             -3.0000000e-06
   8180.0000000             -2.5000000e-05
   1862.0000000             -1.3100000e-04
    527.3000000             -5.5800000e-04
    172.0000000             -1.9880000e-03
     62.1000000             -6.3700000e-03
     24.2100000             -1.7217000e-02
      9.9930000             -4.0858000e-02
      4.3050000             -7.4237000e-02
      1.9210000             -1.1923400e-01
      0.8663000             -8.7777000e-02
      0.2475000              2.7878800e-01
      0.1009000              5.8349900e-01
      0.0412900              2.6900700e-01
S   1   1.00
      0.8663000              1.0000000e+00
S   1   1.00
      0.2475000              1.0000000e+00
S   1   1.00
      0.1009000              1.0000000e+00
S   1   1.00
      0.0412900              1.0000000e+00
P   8   1.00
     43.7500000              6.3300000e-04
     10.3300000              4.8080000e-03
      3.2260000              2.0527000e-02
      1.1270000              6.7816000e-02
      0.4334000              1.9286800e-01
      0.1808000              3.7869200e-01
      0.0782700              4.0057400e-01
      0.0337200              1.3806700e-01
P   1   1.00
      0.4334000              1.0000000e+00
P   1   1.00
      0.1808000              1.0000000e+00
P   1   1.00
      0.0782700              1.0000000e+00
P   1   1.00
      0.0337200              1.0000000e+00
D   1   1.00
      1.7175000              1.0000000e+00
D   1   1.00
      0.7646000              1.0000000e+00
D   1   1.00
      0.3404000              1.0000000e+00
D   1   1.00
      0.1515000              1.0000000e+00
F   1   1.00
      0.6127000              1.0000000e+00
F   1   1.00
      0.3568000              1.0000000e+00
F   1   1.00
      0.2078000              1.0000000e+00
G   1   1.00
      0.5980000              1.0000000e+00
G   1   1.00
      0.3183000              1.0000000e+00
H   1   1.00
      0.5142000              1.0000000e+00
S   1   1.00
     51.1620000              1.0000000        
S   1   1.00
     23.1700000              1.0000000        
S   1   1.00
     10.4930000              1.0000000        
S   1   1.00
      4.7521000              1.0000000       
P   1   1.00
     56.4100000              1.0000000
P   1   1.00
     22.0430000              1.0000000
P   1   1.00
      8.6139000              1.0000000
P   1   1.00
      3.3661000              1.0000000
D   1   1.00
     41.4200000              1.0000000        
D   1   1.00
     15.6510000              1.0000000        
D   1   1.00
      5.9140000              1.0000000        
F   1   1.00
     24.1030000              1.0000000        
F   1   1.00
      7.6834000              1.0000000        
G   1   1.00
     15.8210000              1.0000000        
S   1   1.00
      0.0128000              1.0000000        
P   1   1.00
      0.0076000              1.0000000        
D   1   1.00
      0.0428000              1.0000000        
F   1   1.00
      0.0719000              1.0000000        
G   1   1.00
      0.0979000              1.0000000        
H   1   1.00
      0.2033000              1.0000000        
****
$end

        
@@@@@@
$molecule
read
$end

$rem

jobtype sp
method CCSD(T)
xc_grid 000099000590
basis gen
max_scf_cycles 200
thresh 14
scf_convergence 8
mem_total 128000
cc_memory 96000
cc_backend xm
mem_static 1500
symmetry false
sym_ignore true
scf_guess read
unrestricted True
scf_algorithm gdm
n_frozen_core 0
$end

$multipole_field
XX -0.0001
$end

$basis
****
Be     0
S   14   1.00
  54620.0000000              1.8000000e-05
   8180.0000000              1.3800000e-04
   1862.0000000              7.2300000e-04
    527.3000000              3.0390000e-03
    172.0000000              1.0908000e-02
     62.1000000              3.4035000e-02
     24.2100000              9.1193000e-02
      9.9930000              1.9926800e-01
      4.3050000              3.2935500e-01
      1.9210000              3.4048900e-01
      0.8663000              1.4374000e-01
      0.2475000              6.5170000e-03
      0.1009000             -1.8650000e-03
      0.0412900              4.8000000e-04
S   14   1.00
  54620.0000000             -3.0000000e-06
   8180.0000000             -2.5000000e-05
   1862.0000000             -1.3100000e-04
    527.3000000             -5.5800000e-04
    172.0000000             -1.9880000e-03
     62.1000000             -6.3700000e-03
     24.2100000             -1.7217000e-02
      9.9930000             -4.0858000e-02
      4.3050000             -7.4237000e-02
      1.9210000             -1.1923400e-01
      0.8663000             -8.7777000e-02
      0.2475000              2.7878800e-01
      0.1009000              5.8349900e-01
      0.0412900              2.6900700e-01
S   1   1.00
      0.8663000              1.0000000e+00
S   1   1.00
      0.2475000              1.0000000e+00
S   1   1.00
      0.1009000              1.0000000e+00
S   1   1.00
      0.0412900              1.0000000e+00
P   8   1.00
     43.7500000              6.3300000e-04
     10.3300000              4.8080000e-03
      3.2260000              2.0527000e-02
      1.1270000              6.7816000e-02
      0.4334000              1.9286800e-01
      0.1808000              3.7869200e-01
      0.0782700              4.0057400e-01
      0.0337200              1.3806700e-01
P   1   1.00
      0.4334000              1.0000000e+00
P   1   1.00
      0.1808000              1.0000000e+00
P   1   1.00
      0.0782700              1.0000000e+00
P   1   1.00
      0.0337200              1.0000000e+00
D   1   1.00
      1.7175000              1.0000000e+00
D   1   1.00
      0.7646000              1.0000000e+00
D   1   1.00
      0.3404000              1.0000000e+00
D   1   1.00
      0.1515000              1.0000000e+00
F   1   1.00
      0.6127000              1.0000000e+00
F   1   1.00
      0.3568000              1.0000000e+00
F   1   1.00
      0.2078000              1.0000000e+00
G   1   1.00
      0.5980000              1.0000000e+00
G   1   1.00
      0.3183000              1.0000000e+00
H   1   1.00
      0.5142000              1.0000000e+00
S   1   1.00
     51.1620000              1.0000000        
S   1   1.00
     23.1700000              1.0000000        
S   1   1.00
     10.4930000              1.0000000        
S   1   1.00
      4.7521000              1.0000000       
P   1   1.00
     56.4100000              1.0000000
P   1   1.00
     22.0430000              1.0000000
P   1   1.00
      8.6139000              1.0000000
P   1   1.00
      3.3661000              1.0000000
D   1   1.00
     41.4200000              1.0000000        
D   1   1.00
     15.6510000              1.0000000        
D   1   1.00
      5.9140000              1.0000000        
F   1   1.00
     24.1030000              1.0000000        
F   1   1.00
      7.6834000              1.0000000        
G   1   1.00
     15.8210000              1.0000000        
S   1   1.00
      0.0128000              1.0000000        
P   1   1.00
      0.0076000              1.0000000        
D   1   1.00
      0.0428000              1.0000000        
F   1   1.00
      0.0719000              1.0000000        
G   1   1.00
      0.0979000              1.0000000        
H   1   1.00
      0.2033000              1.0000000        
****
$end

        
@@@@@@
$molecule
read
$end

$rem

jobtype sp
method CCSD(T)
xc_grid 000099000590
basis gen
max_scf_cycles 200
thresh 14
scf_convergence 8
mem_total 128000
cc_memory 96000
cc_backend xm
mem_static 1500
symmetry false
sym_ignore true
scf_guess read
unrestricted True
scf_algorithm gdm
n_frozen_core 0
$end

$multipole_field
YY 0.0001
$end

$basis
****
Be     0
S   14   1.00
  54620.0000000              1.8000000e-05
   8180.0000000              1.3800000e-04
   1862.0000000              7.2300000e-04
    527.3000000              3.0390000e-03
    172.0000000              1.0908000e-02
     62.1000000              3.4035000e-02
     24.2100000              9.1193000e-02
      9.9930000              1.9926800e-01
      4.3050000              3.2935500e-01
      1.9210000              3.4048900e-01
      0.8663000              1.4374000e-01
      0.2475000              6.5170000e-03
      0.1009000             -1.8650000e-03
      0.0412900              4.8000000e-04
S   14   1.00
  54620.0000000             -3.0000000e-06
   8180.0000000             -2.5000000e-05
   1862.0000000             -1.3100000e-04
    527.3000000             -5.5800000e-04
    172.0000000             -1.9880000e-03
     62.1000000             -6.3700000e-03
     24.2100000             -1.7217000e-02
      9.9930000             -4.0858000e-02
      4.3050000             -7.4237000e-02
      1.9210000             -1.1923400e-01
      0.8663000             -8.7777000e-02
      0.2475000              2.7878800e-01
      0.1009000              5.8349900e-01
      0.0412900              2.6900700e-01
S   1   1.00
      0.8663000              1.0000000e+00
S   1   1.00
      0.2475000              1.0000000e+00
S   1   1.00
      0.1009000              1.0000000e+00
S   1   1.00
      0.0412900              1.0000000e+00
P   8   1.00
     43.7500000              6.3300000e-04
     10.3300000              4.8080000e-03
      3.2260000              2.0527000e-02
      1.1270000              6.7816000e-02
      0.4334000              1.9286800e-01
      0.1808000              3.7869200e-01
      0.0782700              4.0057400e-01
      0.0337200              1.3806700e-01
P   1   1.00
      0.4334000              1.0000000e+00
P   1   1.00
      0.1808000              1.0000000e+00
P   1   1.00
      0.0782700              1.0000000e+00
P   1   1.00
      0.0337200              1.0000000e+00
D   1   1.00
      1.7175000              1.0000000e+00
D   1   1.00
      0.7646000              1.0000000e+00
D   1   1.00
      0.3404000              1.0000000e+00
D   1   1.00
      0.1515000              1.0000000e+00
F   1   1.00
      0.6127000              1.0000000e+00
F   1   1.00
      0.3568000              1.0000000e+00
F   1   1.00
      0.2078000              1.0000000e+00
G   1   1.00
      0.5980000              1.0000000e+00
G   1   1.00
      0.3183000              1.0000000e+00
H   1   1.00
      0.5142000              1.0000000e+00
S   1   1.00
     51.1620000              1.0000000        
S   1   1.00
     23.1700000              1.0000000        
S   1   1.00
     10.4930000              1.0000000        
S   1   1.00
      4.7521000              1.0000000       
P   1   1.00
     56.4100000              1.0000000
P   1   1.00
     22.0430000              1.0000000
P   1   1.00
      8.6139000              1.0000000
P   1   1.00
      3.3661000              1.0000000
D   1   1.00
     41.4200000              1.0000000        
D   1   1.00
     15.6510000              1.0000000        
D   1   1.00
      5.9140000              1.0000000        
F   1   1.00
     24.1030000              1.0000000        
F   1   1.00
      7.6834000              1.0000000        
G   1   1.00
     15.8210000              1.0000000        
S   1   1.00
      0.0128000              1.0000000        
P   1   1.00
      0.0076000              1.0000000        
D   1   1.00
      0.0428000              1.0000000        
F   1   1.00
      0.0719000              1.0000000        
G   1   1.00
      0.0979000              1.0000000        
H   1   1.00
      0.2033000              1.0000000        
****
$end

        
@@@@@@
$molecule
read
$end

$rem

jobtype sp
method CCSD(T)
xc_grid 000099000590
basis gen
max_scf_cycles 200
thresh 14
scf_convergence 8
mem_total 128000
cc_memory 96000
cc_backend xm
mem_static 1500
symmetry false
sym_ignore true
scf_guess read
unrestricted True
scf_algorithm gdm
n_frozen_core 0
$end

$multipole_field
YY -0.0001
$end

$basis
****
Be     0
S   14   1.00
  54620.0000000              1.8000000e-05
   8180.0000000              1.3800000e-04
   1862.0000000              7.2300000e-04
    527.3000000              3.0390000e-03
    172.0000000              1.0908000e-02
     62.1000000              3.4035000e-02
     24.2100000              9.1193000e-02
      9.9930000              1.9926800e-01
      4.3050000              3.2935500e-01
      1.9210000              3.4048900e-01
      0.8663000              1.4374000e-01
      0.2475000              6.5170000e-03
      0.1009000             -1.8650000e-03
      0.0412900              4.8000000e-04
S   14   1.00
  54620.0000000             -3.0000000e-06
   8180.0000000             -2.5000000e-05
   1862.0000000             -1.3100000e-04
    527.3000000             -5.5800000e-04
    172.0000000             -1.9880000e-03
     62.1000000             -6.3700000e-03
     24.2100000             -1.7217000e-02
      9.9930000             -4.0858000e-02
      4.3050000             -7.4237000e-02
      1.9210000             -1.1923400e-01
      0.8663000             -8.7777000e-02
      0.2475000              2.7878800e-01
      0.1009000              5.8349900e-01
      0.0412900              2.6900700e-01
S   1   1.00
      0.8663000              1.0000000e+00
S   1   1.00
      0.2475000              1.0000000e+00
S   1   1.00
      0.1009000              1.0000000e+00
S   1   1.00
      0.0412900              1.0000000e+00
P   8   1.00
     43.7500000              6.3300000e-04
     10.3300000              4.8080000e-03
      3.2260000              2.0527000e-02
      1.1270000              6.7816000e-02
      0.4334000              1.9286800e-01
      0.1808000              3.7869200e-01
      0.0782700              4.0057400e-01
      0.0337200              1.3806700e-01
P   1   1.00
      0.4334000              1.0000000e+00
P   1   1.00
      0.1808000              1.0000000e+00
P   1   1.00
      0.0782700              1.0000000e+00
P   1   1.00
      0.0337200              1.0000000e+00
D   1   1.00
      1.7175000              1.0000000e+00
D   1   1.00
      0.7646000              1.0000000e+00
D   1   1.00
      0.3404000              1.0000000e+00
D   1   1.00
      0.1515000              1.0000000e+00
F   1   1.00
      0.6127000              1.0000000e+00
F   1   1.00
      0.3568000              1.0000000e+00
F   1   1.00
      0.2078000              1.0000000e+00
G   1   1.00
      0.5980000              1.0000000e+00
G   1   1.00
      0.3183000              1.0000000e+00
H   1   1.00
      0.5142000              1.0000000e+00
S   1   1.00
     51.1620000              1.0000000        
S   1   1.00
     23.1700000              1.0000000        
S   1   1.00
     10.4930000              1.0000000        
S   1   1.00
      4.7521000              1.0000000       
P   1   1.00
     56.4100000              1.0000000
P   1   1.00
     22.0430000              1.0000000
P   1   1.00
      8.6139000              1.0000000
P   1   1.00
      3.3661000              1.0000000
D   1   1.00
     41.4200000              1.0000000        
D   1   1.00
     15.6510000              1.0000000        
D   1   1.00
      5.9140000              1.0000000        
F   1   1.00
     24.1030000              1.0000000        
F   1   1.00
      7.6834000              1.0000000        
G   1   1.00
     15.8210000              1.0000000        
S   1   1.00
      0.0128000              1.0000000        
P   1   1.00
      0.0076000              1.0000000        
D   1   1.00
      0.0428000              1.0000000        
F   1   1.00
      0.0719000              1.0000000        
G   1   1.00
      0.0979000              1.0000000        
H   1   1.00
      0.2033000              1.0000000        
****
$end

        
@@@@@@
$molecule
read
$end

$rem

jobtype sp
method CCSD(T)
xc_grid 000099000590
basis gen
max_scf_cycles 200
thresh 14
scf_convergence 8
mem_total 128000
cc_memory 96000
cc_backend xm
mem_static 1500
symmetry false
sym_ignore true
scf_guess read
unrestricted True
scf_algorithm gdm
n_frozen_core 0
$end

$multipole_field
ZZ 0.0001
$end

$basis
****
Be     0
S   14   1.00
  54620.0000000              1.8000000e-05
   8180.0000000              1.3800000e-04
   1862.0000000              7.2300000e-04
    527.3000000              3.0390000e-03
    172.0000000              1.0908000e-02
     62.1000000              3.4035000e-02
     24.2100000              9.1193000e-02
      9.9930000              1.9926800e-01
      4.3050000              3.2935500e-01
      1.9210000              3.4048900e-01
      0.8663000              1.4374000e-01
      0.2475000              6.5170000e-03
      0.1009000             -1.8650000e-03
      0.0412900              4.8000000e-04
S   14   1.00
  54620.0000000             -3.0000000e-06
   8180.0000000             -2.5000000e-05
   1862.0000000             -1.3100000e-04
    527.3000000             -5.5800000e-04
    172.0000000             -1.9880000e-03
     62.1000000             -6.3700000e-03
     24.2100000             -1.7217000e-02
      9.9930000             -4.0858000e-02
      4.3050000             -7.4237000e-02
      1.9210000             -1.1923400e-01
      0.8663000             -8.7777000e-02
      0.2475000              2.7878800e-01
      0.1009000              5.8349900e-01
      0.0412900              2.6900700e-01
S   1   1.00
      0.8663000              1.0000000e+00
S   1   1.00
      0.2475000              1.0000000e+00
S   1   1.00
      0.1009000              1.0000000e+00
S   1   1.00
      0.0412900              1.0000000e+00
P   8   1.00
     43.7500000              6.3300000e-04
     10.3300000              4.8080000e-03
      3.2260000              2.0527000e-02
      1.1270000              6.7816000e-02
      0.4334000              1.9286800e-01
      0.1808000              3.7869200e-01
      0.0782700              4.0057400e-01
      0.0337200              1.3806700e-01
P   1   1.00
      0.4334000              1.0000000e+00
P   1   1.00
      0.1808000              1.0000000e+00
P   1   1.00
      0.0782700              1.0000000e+00
P   1   1.00
      0.0337200              1.0000000e+00
D   1   1.00
      1.7175000              1.0000000e+00
D   1   1.00
      0.7646000              1.0000000e+00
D   1   1.00
      0.3404000              1.0000000e+00
D   1   1.00
      0.1515000              1.0000000e+00
F   1   1.00
      0.6127000              1.0000000e+00
F   1   1.00
      0.3568000              1.0000000e+00
F   1   1.00
      0.2078000              1.0000000e+00
G   1   1.00
      0.5980000              1.0000000e+00
G   1   1.00
      0.3183000              1.0000000e+00
H   1   1.00
      0.5142000              1.0000000e+00
S   1   1.00
     51.1620000              1.0000000        
S   1   1.00
     23.1700000              1.0000000        
S   1   1.00
     10.4930000              1.0000000        
S   1   1.00
      4.7521000              1.0000000       
P   1   1.00
     56.4100000              1.0000000
P   1   1.00
     22.0430000              1.0000000
P   1   1.00
      8.6139000              1.0000000
P   1   1.00
      3.3661000              1.0000000
D   1   1.00
     41.4200000              1.0000000        
D   1   1.00
     15.6510000              1.0000000        
D   1   1.00
      5.9140000              1.0000000        
F   1   1.00
     24.1030000              1.0000000        
F   1   1.00
      7.6834000              1.0000000        
G   1   1.00
     15.8210000              1.0000000        
S   1   1.00
      0.0128000              1.0000000        
P   1   1.00
      0.0076000              1.0000000        
D   1   1.00
      0.0428000              1.0000000        
F   1   1.00
      0.0719000              1.0000000        
G   1   1.00
      0.0979000              1.0000000        
H   1   1.00
      0.2033000              1.0000000        
****
$end

        
@@@@@@
$molecule
read
$end

$rem

jobtype sp
method CCSD(T)
xc_grid 000099000590
basis gen
max_scf_cycles 200
thresh 14
scf_convergence 8
mem_total 128000
cc_memory 96000
cc_backend xm
mem_static 1500
symmetry false
sym_ignore true
scf_guess read
unrestricted True
scf_algorithm gdm
n_frozen_core 0
$end

$multipole_field
ZZ -0.0001
$end

$basis
****
Be     0
S   14   1.00
  54620.0000000              1.8000000e-05
   8180.0000000              1.3800000e-04
   1862.0000000              7.2300000e-04
    527.3000000              3.0390000e-03
    172.0000000              1.0908000e-02
     62.1000000              3.4035000e-02
     24.2100000              9.1193000e-02
      9.9930000              1.9926800e-01
      4.3050000              3.2935500e-01
      1.9210000              3.4048900e-01
      0.8663000              1.4374000e-01
      0.2475000              6.5170000e-03
      0.1009000             -1.8650000e-03
      0.0412900              4.8000000e-04
S   14   1.00
  54620.0000000             -3.0000000e-06
   8180.0000000             -2.5000000e-05
   1862.0000000             -1.3100000e-04
    527.3000000             -5.5800000e-04
    172.0000000             -1.9880000e-03
     62.1000000             -6.3700000e-03
     24.2100000             -1.7217000e-02
      9.9930000             -4.0858000e-02
      4.3050000             -7.4237000e-02
      1.9210000             -1.1923400e-01
      0.8663000             -8.7777000e-02
      0.2475000              2.7878800e-01
      0.1009000              5.8349900e-01
      0.0412900              2.6900700e-01
S   1   1.00
      0.8663000              1.0000000e+00
S   1   1.00
      0.2475000              1.0000000e+00
S   1   1.00
      0.1009000              1.0000000e+00
S   1   1.00
      0.0412900              1.0000000e+00
P   8   1.00
     43.7500000              6.3300000e-04
     10.3300000              4.8080000e-03
      3.2260000              2.0527000e-02
      1.1270000              6.7816000e-02
      0.4334000              1.9286800e-01
      0.1808000              3.7869200e-01
      0.0782700              4.0057400e-01
      0.0337200              1.3806700e-01
P   1   1.00
      0.4334000              1.0000000e+00
P   1   1.00
      0.1808000              1.0000000e+00
P   1   1.00
      0.0782700              1.0000000e+00
P   1   1.00
      0.0337200              1.0000000e+00
D   1   1.00
      1.7175000              1.0000000e+00
D   1   1.00
      0.7646000              1.0000000e+00
D   1   1.00
      0.3404000              1.0000000e+00
D   1   1.00
      0.1515000              1.0000000e+00
F   1   1.00
      0.6127000              1.0000000e+00
F   1   1.00
      0.3568000              1.0000000e+00
F   1   1.00
      0.2078000              1.0000000e+00
G   1   1.00
      0.5980000              1.0000000e+00
G   1   1.00
      0.3183000              1.0000000e+00
H   1   1.00
      0.5142000              1.0000000e+00
S   1   1.00
     51.1620000              1.0000000        
S   1   1.00
     23.1700000              1.0000000        
S   1   1.00
     10.4930000              1.0000000        
S   1   1.00
      4.7521000              1.0000000       
P   1   1.00
     56.4100000              1.0000000
P   1   1.00
     22.0430000              1.0000000
P   1   1.00
      8.6139000              1.0000000
P   1   1.00
      3.3661000              1.0000000
D   1   1.00
     41.4200000              1.0000000        
D   1   1.00
     15.6510000              1.0000000        
D   1   1.00
      5.9140000              1.0000000        
F   1   1.00
     24.1030000              1.0000000        
F   1   1.00
      7.6834000              1.0000000        
G   1   1.00
     15.8210000              1.0000000        
S   1   1.00
      0.0128000              1.0000000        
P   1   1.00
      0.0076000              1.0000000        
D   1   1.00
      0.0428000              1.0000000        
F   1   1.00
      0.0719000              1.0000000        
G   1   1.00
      0.0979000              1.0000000        
H   1   1.00
      0.2033000              1.0000000        
****
$end

        